O Ce                                    
   1.00000000000000     
    21.6439990999999985    0.0000000000000000    0.0000000000000000
     0.0000000000000000   21.6439990999999985    0.0000000000000000
     0.0000000000000000    0.0000000000000000   21.6439990999999985
   O    Ce
    20    10
Direct
  0.4969980031693403  0.8119118782226816  0.9527476671196000
  0.6627481852584296  0.8273747421651373  0.9325465561008078
  0.4175402286497097  0.8766844493933439  0.6578090531794926
  0.3809743617786057  0.7978461231897765  0.7990241588104388
  0.4957923734512513  0.7377567397691142  0.8443170529656903
  0.5859478456121481  0.9593329589270313  0.9627062958061757
  0.6602437088596419  0.9351762842442967  0.8110105111112441
  0.5723749595543819  0.6767843968871247  0.9223549972016452
  0.4989270271915528  0.9399713276000466  0.7688769622749999
  0.3374867955167629  0.9430181223654447  0.8113691597045495
  0.4137894039890006  0.9630409109622380  0.9647183280426340
  0.4108365737092741  0.6765691456373623  0.9105460037259286
  0.5171235438275084  0.6317069935994190  0.7841341005974211
  0.5671939501155742  0.8788903542765769  0.8704369199969290
  0.4301965345830273  0.8853427103851410  0.8709740136996156
  0.5795699220920909  0.8794866720963478  0.6602085937458103
  0.5202623888518825  0.7376264250534363  0.6481054178920030
  0.3318146826216729  0.8360870295313285  0.9329066303022769
  0.4973605695303505  0.8208660711748483  0.7357460826953593
  0.6047784061349096  0.7795313580247297  0.7935743484861505
  0.4989577899759347  0.8339674473010402  0.6324358924491282
  0.5812281597840313  0.8875788654941299  0.7622389042171265
  0.5340608444499542  0.7235663583197033  0.7454269424080664
  0.6561847961554478  0.9206792129336682  0.9056289626150607
  0.4934984109640737  0.6393909743080509  0.8793826643138022
  0.4122023871574513  0.8873074106132286  0.7620470970775125
  0.4059809955716057  0.7791082426939238  0.8915950517101389
  0.5824274858729255  0.7751040550680034  0.8985478432501067
  0.3414069222061252  0.9281736556763206  0.9052871005044345
  0.4977577538577826  0.9138661916161931  0.9443261864677823
 
  0.00000000E+00  0.00000000E+00  0.00000000E+00
  0.00000000E+00  0.00000000E+00  0.00000000E+00
  0.00000000E+00  0.00000000E+00  0.00000000E+00
  0.00000000E+00  0.00000000E+00  0.00000000E+00
  0.00000000E+00  0.00000000E+00  0.00000000E+00
  0.00000000E+00  0.00000000E+00  0.00000000E+00
  0.00000000E+00  0.00000000E+00  0.00000000E+00
  0.00000000E+00  0.00000000E+00  0.00000000E+00
  0.00000000E+00  0.00000000E+00  0.00000000E+00
  0.00000000E+00  0.00000000E+00  0.00000000E+00
  0.00000000E+00  0.00000000E+00  0.00000000E+00
  0.00000000E+00  0.00000000E+00  0.00000000E+00
  0.00000000E+00  0.00000000E+00  0.00000000E+00
  0.00000000E+00  0.00000000E+00  0.00000000E+00
  0.00000000E+00  0.00000000E+00  0.00000000E+00
  0.00000000E+00  0.00000000E+00  0.00000000E+00
  0.00000000E+00  0.00000000E+00  0.00000000E+00
  0.00000000E+00  0.00000000E+00  0.00000000E+00
  0.00000000E+00  0.00000000E+00  0.00000000E+00
  0.00000000E+00  0.00000000E+00  0.00000000E+00
  0.00000000E+00  0.00000000E+00  0.00000000E+00
  0.00000000E+00  0.00000000E+00  0.00000000E+00
  0.00000000E+00  0.00000000E+00  0.00000000E+00
  0.00000000E+00  0.00000000E+00  0.00000000E+00
  0.00000000E+00  0.00000000E+00  0.00000000E+00
  0.00000000E+00  0.00000000E+00  0.00000000E+00
  0.00000000E+00  0.00000000E+00  0.00000000E+00
  0.00000000E+00  0.00000000E+00  0.00000000E+00
  0.00000000E+00  0.00000000E+00  0.00000000E+00
  0.00000000E+00  0.00000000E+00  0.00000000E+00
