O Ce                                    
   1.00000000000000     
    21.6439990997000002    0.0000000000000000    0.0000000000000000
     0.0000000000000000   21.6439990997000002    0.0000000000000000
     0.0000000000000000    0.0000000000000000   21.6439990997000002
   O    Ce
    20    10
Direct
  0.5418668741306298  0.9103965926918932  0.2795413315374282
  0.7066707687521286  0.9517250743309208  0.5194681512767242
  0.7747246080121554  0.6647227992455377  0.2869722537867295
  0.8181666123836051  0.8332825575495506  0.5227192461517577
  0.8312283205395729  0.9516260553585077  0.2538256890492000
  0.6112452393366289  0.8570074647683877  0.3621805859023867
  0.6881533076496165  0.9249057564217216  0.1821343320826842
  0.5188822077018702  0.7803426771439084  0.3733066378019196
  0.6662025551094487  0.7994852881171799  0.4556199503097923
  0.7999397272149641  0.8070771907778904  0.1855706516827792
  0.6923747682447463  0.9485035611326810  0.3508178251216368
  0.5508379953144924  0.9245753277902568  0.4413078970934737
  0.7828696380258864  0.6770902633622273  0.4480222596022350
  0.8180249191602743  0.8144241835819556  0.3539522628260122
  0.6556628712788761  0.7856996083653039  0.2725612615041365
  0.8415599213627664  0.9645526943006205  0.4298654272336855
  0.7450459999574975  0.8697195434581991  0.2724149807435711
  0.7538894338873610  0.8820285859606805  0.4334199966551457
  0.7217859415449890  0.7392877482589745  0.3648012987425480
  0.6396429837651275  0.6521085414722617  0.3771186971500805
  0.7832106834836167  0.9032328985672804  0.1840734520378478
  0.6431459210273298  0.8934114726581708  0.2693847103073291
  0.7634697556655407  0.7662926033338016  0.2728447213464751
  0.7359212304376271  0.6382062688954401  0.3723311754608341
  0.6181630664548322  0.7526645548894052  0.3700253481841448
  0.8011827754169933  0.9286296014092701  0.5108667043834195
  0.5111279038212172  0.8773113946284894  0.3658848927971857
  0.7727047501616745  0.7799139082794105  0.4469168062196872
  0.6527871777096160  0.9077335212152445  0.4435717433656331
  0.7975229852774365  0.9215695776561101  0.3467610841896835
 
  0.00000000E+00  0.00000000E+00  0.00000000E+00
  0.00000000E+00  0.00000000E+00  0.00000000E+00
  0.00000000E+00  0.00000000E+00  0.00000000E+00
  0.00000000E+00  0.00000000E+00  0.00000000E+00
  0.00000000E+00  0.00000000E+00  0.00000000E+00
  0.00000000E+00  0.00000000E+00  0.00000000E+00
  0.00000000E+00  0.00000000E+00  0.00000000E+00
  0.00000000E+00  0.00000000E+00  0.00000000E+00
  0.00000000E+00  0.00000000E+00  0.00000000E+00
  0.00000000E+00  0.00000000E+00  0.00000000E+00
  0.00000000E+00  0.00000000E+00  0.00000000E+00
  0.00000000E+00  0.00000000E+00  0.00000000E+00
  0.00000000E+00  0.00000000E+00  0.00000000E+00
  0.00000000E+00  0.00000000E+00  0.00000000E+00
  0.00000000E+00  0.00000000E+00  0.00000000E+00
  0.00000000E+00  0.00000000E+00  0.00000000E+00
  0.00000000E+00  0.00000000E+00  0.00000000E+00
  0.00000000E+00  0.00000000E+00  0.00000000E+00
  0.00000000E+00  0.00000000E+00  0.00000000E+00
  0.00000000E+00  0.00000000E+00  0.00000000E+00
  0.00000000E+00  0.00000000E+00  0.00000000E+00
  0.00000000E+00  0.00000000E+00  0.00000000E+00
  0.00000000E+00  0.00000000E+00  0.00000000E+00
  0.00000000E+00  0.00000000E+00  0.00000000E+00
  0.00000000E+00  0.00000000E+00  0.00000000E+00
  0.00000000E+00  0.00000000E+00  0.00000000E+00
  0.00000000E+00  0.00000000E+00  0.00000000E+00
  0.00000000E+00  0.00000000E+00  0.00000000E+00
  0.00000000E+00  0.00000000E+00  0.00000000E+00
  0.00000000E+00  0.00000000E+00  0.00000000E+00
