 O Ce                                   
   1.00000000000000     
    21.6439990997000002    0.0000000000000000    0.0000000000000000
     0.0000000000000000   21.6439990997000002    0.0000000000000000
     0.0000000000000000    0.0000000000000000   21.6439990997000002
   O    Ce
    19    10
Direct
  0.5972131883785967  0.1634180793120903  0.5601261331492101
  0.8637819378392458  0.2482441659665030  0.4379073552593510
  0.6778490604198204  0.0871322902007679  0.4274110064683085
  0.7622648271131622  0.1809100196364097  0.3234523485592514
  0.6926248471510481  0.2470940357712332  0.5701059328942369
  0.5868422964354292  0.3171094370586533  0.5828101587533537
  0.7609136722194690  0.1334854201230178  0.5648951740908765
  0.6693234122226394  0.2490360454211167  0.4377912587193610
  0.8397779473532611  0.0757191990205827  0.4194528845645981
  0.8371455054376250  0.2458706946357253  0.5709307426630691
  0.8601648025317932  0.4139353520199894  0.4625662956588102
  0.9421410884687753  0.3123192369888728  0.5740461337557488
  0.9350462756520291  0.1581493610168665  0.5712077843592218
  0.7646109890219135  0.1708320738028583  0.4447485301141306
  0.7675641577234257  0.3513311285380478  0.3507237403936994
  0.7680703442960811  0.3314733522255652  0.4766220907497855
  0.6778307891381179  0.2105616590655153  0.6881654715638578
  0.6851742365525400  0.4265755544399930  0.4594672117143138
  0.8495125954116172  0.2081980940024192  0.6887435733988303
  0.7708741686376296  0.4202557134527725  0.4204059895833010
  0.9242935604892172  0.2313720648100202  0.6282834275940176
  0.7637761327166734  0.2026458363218567  0.6362736003406799
  0.8709098008139831  0.3225632341596795  0.5036488028753492
  0.7651292660521813  0.2580043679610979  0.3884791547623544
  0.8549743277286547  0.1495143409182418  0.4984479021296045
  0.6046465253486890  0.2353552657862358  0.6264239703555943
  0.6587095399685469  0.3312939978230431  0.5031910424260037
  0.7600384196045770  0.0955842363104593  0.3732204425856546
  0.6762962854306285  0.1595157431563862  0.4979518405708453
 
  0.00000000E+00  0.00000000E+00  0.00000000E+00
  0.00000000E+00  0.00000000E+00  0.00000000E+00
  0.00000000E+00  0.00000000E+00  0.00000000E+00
  0.00000000E+00  0.00000000E+00  0.00000000E+00
  0.00000000E+00  0.00000000E+00  0.00000000E+00
  0.00000000E+00  0.00000000E+00  0.00000000E+00
  0.00000000E+00  0.00000000E+00  0.00000000E+00
  0.00000000E+00  0.00000000E+00  0.00000000E+00
  0.00000000E+00  0.00000000E+00  0.00000000E+00
  0.00000000E+00  0.00000000E+00  0.00000000E+00
  0.00000000E+00  0.00000000E+00  0.00000000E+00
  0.00000000E+00  0.00000000E+00  0.00000000E+00
  0.00000000E+00  0.00000000E+00  0.00000000E+00
  0.00000000E+00  0.00000000E+00  0.00000000E+00
  0.00000000E+00  0.00000000E+00  0.00000000E+00
  0.00000000E+00  0.00000000E+00  0.00000000E+00
  0.00000000E+00  0.00000000E+00  0.00000000E+00
  0.00000000E+00  0.00000000E+00  0.00000000E+00
  0.00000000E+00  0.00000000E+00  0.00000000E+00
  0.00000000E+00  0.00000000E+00  0.00000000E+00
  0.00000000E+00  0.00000000E+00  0.00000000E+00
  0.00000000E+00  0.00000000E+00  0.00000000E+00
  0.00000000E+00  0.00000000E+00  0.00000000E+00
  0.00000000E+00  0.00000000E+00  0.00000000E+00
  0.00000000E+00  0.00000000E+00  0.00000000E+00
  0.00000000E+00  0.00000000E+00  0.00000000E+00
  0.00000000E+00  0.00000000E+00  0.00000000E+00
  0.00000000E+00  0.00000000E+00  0.00000000E+00
  0.00000000E+00  0.00000000E+00  0.00000000E+00
