O Ce                                    
   1.00000000000000     
    21.6439990999999985    0.0000000000000000    0.0000000000000000
     0.0000000000000000   21.6439990999999985    0.0000000000000000
     0.0000000000000000    0.0000000000000000   21.6439990999999985
   O    Ce
    21    10
Direct
  0.5458047774875803  0.9057529671562333  0.2735557453762588
  0.7079691476791634  0.9383709786611050  0.5180619098467726
  0.8167153646627757  0.7738691561920336  0.3527602471239731
  0.8151087990189236  0.8222747643617507  0.5167861808154327
  0.8291813674259041  0.9659656406957742  0.2569811284572828
  0.6131504655070119  0.8445965774561744  0.3574359382358333
  0.6996327468339606  0.9262921822609081  0.1836604361904904
  0.5106087443313817  0.7829676609713498  0.3875837561624620
  0.6630002255182026  0.7992366000707699  0.4648912356544740
  0.8089037996802380  0.8073107986884108  0.1886907670210181
  0.6865447191730786  0.9530697075797503  0.3492233239733090
  0.5551863091748719  0.9247829068144858  0.4336288071375475
  0.7654723860922071  0.6679447124841565  0.4412827287735315
  0.7516542775675444  0.6567453800716093  0.2799654825430548
  0.6678073173912030  0.7949342136855501  0.2417518331595985
  0.8165024601318605 -0.0011938952066261  0.4379969766129682
  0.7566759275825953  0.8705026885624962  0.2821063023614281
  0.7588476177326904  0.8781865758844208  0.4214489812780419
  0.6990479301799658  0.7372152229105371  0.3592020068608072
  0.6201642840904394  0.6490584171255718  0.3918465681836252
  0.8643741977080867  0.9517720814401402  0.4260505968737359
  0.7926396368952490  0.9012272689721171  0.1895747461656395
  0.6484032994098043  0.8882985729989504  0.2636020294482285
  0.7593799839782177  0.7607931402518681  0.2693530355705446
  0.7152323297205485  0.6345805103864258  0.3654575046828828
  0.6038735324431711  0.7469633181465751  0.4002442945754031
  0.8020865473873894  0.9158755142290645  0.5077161946921021
  0.5141169814227329  0.8772730812577322  0.3592904438140001
  0.7692332028430338  0.7698377650847809  0.4381494801727011
  0.6543971407093213  0.9037688225663887  0.4392874450056380
  0.7888814031804463  0.9463925569476356  0.3448588939390538
 
  0.00000000E+00  0.00000000E+00  0.00000000E+00
  0.00000000E+00  0.00000000E+00  0.00000000E+00
  0.00000000E+00  0.00000000E+00  0.00000000E+00
  0.00000000E+00  0.00000000E+00  0.00000000E+00
  0.00000000E+00  0.00000000E+00  0.00000000E+00
  0.00000000E+00  0.00000000E+00  0.00000000E+00
  0.00000000E+00  0.00000000E+00  0.00000000E+00
  0.00000000E+00  0.00000000E+00  0.00000000E+00
  0.00000000E+00  0.00000000E+00  0.00000000E+00
  0.00000000E+00  0.00000000E+00  0.00000000E+00
  0.00000000E+00  0.00000000E+00  0.00000000E+00
  0.00000000E+00  0.00000000E+00  0.00000000E+00
  0.00000000E+00  0.00000000E+00  0.00000000E+00
  0.00000000E+00  0.00000000E+00  0.00000000E+00
  0.00000000E+00  0.00000000E+00  0.00000000E+00
  0.00000000E+00  0.00000000E+00  0.00000000E+00
  0.00000000E+00  0.00000000E+00  0.00000000E+00
  0.00000000E+00  0.00000000E+00  0.00000000E+00
  0.00000000E+00  0.00000000E+00  0.00000000E+00
  0.00000000E+00  0.00000000E+00  0.00000000E+00
  0.00000000E+00  0.00000000E+00  0.00000000E+00
  0.00000000E+00  0.00000000E+00  0.00000000E+00
  0.00000000E+00  0.00000000E+00  0.00000000E+00
  0.00000000E+00  0.00000000E+00  0.00000000E+00
  0.00000000E+00  0.00000000E+00  0.00000000E+00
  0.00000000E+00  0.00000000E+00  0.00000000E+00
  0.00000000E+00  0.00000000E+00  0.00000000E+00
  0.00000000E+00  0.00000000E+00  0.00000000E+00
  0.00000000E+00  0.00000000E+00  0.00000000E+00
  0.00000000E+00  0.00000000E+00  0.00000000E+00
  0.00000000E+00  0.00000000E+00  0.00000000E+00
