O Ce                                    
   1.00000000000000     
    21.6439990999999985    0.0000000000000000    0.0000000000000000
     0.0000000000000000   21.6439990999999985    0.0000000000000000
     0.0000000000000000    0.0000000000000000   21.6439990999999985
   O    Ce
    21    11
Direct
  0.3227507915101203  0.8676091586433333  0.4054176424029629
  0.3975923713196681  0.9132787170340418  0.2700865460944156
  0.3544045062187249  0.7276683124771531  0.2051467962362118
  0.3343030825065994  0.7130274619764917  0.5426312163035093
  0.4605840045879440  0.6689843683935564  0.2946134064935904
  0.4331763294775590  0.8665089897988014  0.4616459866863092
  0.4400735403520776  0.7831159004745265  0.5551292695862822
  0.3723623340107576  0.6169213415694000  0.3687923887276235
  0.3992659212563860  0.6144867718314805  0.4925691811225776
  0.2292668146327952  0.6204077504981619  0.4149398698037057
  0.3996706326791429  0.7944690621782019  0.3148451747337008
  0.1753277964061012  0.7438973713210933  0.3325821669884751
  0.4100430692038536  0.7334057407662740  0.4429282121621827
  0.2757147973324141  0.7620862636258414  0.4474877283652937
  0.5116150516174232  0.6840130493412694  0.5043647187837096
  0.5369701974613574  0.7225405906259885  0.3816749806104061
  0.2804915827417252  0.8351125871685988  0.2635221160577059
  0.5077635522982660  0.8444700685593683  0.3612006847971022
  0.2649165152450941  0.6141838441555700  0.2609488596399573
  0.4729663796235571  0.8044088766372044  0.2117134218526996
  0.2925648615053965  0.7053717263562718  0.3401364758643662
  0.3151034619987057  0.6616867006755754  0.4436116584910340
  0.4707423461562727  0.6408329001137740  0.4052258601857110
  0.3730252997643577  0.8260062731888836  0.2204520433024044
  0.4153436599277426  0.8889416831644009  0.3617417945721110
  0.5099863090336423  0.7884224563284535  0.4627138239552522
  0.2036709528579269  0.6519485262802027  0.3247452734734189
  0.5014643503633518  0.7644346137343169  0.2954550608806820
  0.4288146831193558  0.6840503653612366  0.5564445106632768
  0.3587256118394801  0.6594707344748987  0.2743419676691693
  0.3546054524799775  0.8077821835202582  0.4936571410202693
  0.2591970141856061  0.8029635302232914  0.3517359101218174
 
  0.00000000E+00  0.00000000E+00  0.00000000E+00
  0.00000000E+00  0.00000000E+00  0.00000000E+00
  0.00000000E+00  0.00000000E+00  0.00000000E+00
  0.00000000E+00  0.00000000E+00  0.00000000E+00
  0.00000000E+00  0.00000000E+00  0.00000000E+00
  0.00000000E+00  0.00000000E+00  0.00000000E+00
  0.00000000E+00  0.00000000E+00  0.00000000E+00
  0.00000000E+00  0.00000000E+00  0.00000000E+00
  0.00000000E+00  0.00000000E+00  0.00000000E+00
  0.00000000E+00  0.00000000E+00  0.00000000E+00
  0.00000000E+00  0.00000000E+00  0.00000000E+00
  0.00000000E+00  0.00000000E+00  0.00000000E+00
  0.00000000E+00  0.00000000E+00  0.00000000E+00
  0.00000000E+00  0.00000000E+00  0.00000000E+00
  0.00000000E+00  0.00000000E+00  0.00000000E+00
  0.00000000E+00  0.00000000E+00  0.00000000E+00
  0.00000000E+00  0.00000000E+00  0.00000000E+00
  0.00000000E+00  0.00000000E+00  0.00000000E+00
  0.00000000E+00  0.00000000E+00  0.00000000E+00
  0.00000000E+00  0.00000000E+00  0.00000000E+00
  0.00000000E+00  0.00000000E+00  0.00000000E+00
  0.00000000E+00  0.00000000E+00  0.00000000E+00
  0.00000000E+00  0.00000000E+00  0.00000000E+00
  0.00000000E+00  0.00000000E+00  0.00000000E+00
  0.00000000E+00  0.00000000E+00  0.00000000E+00
  0.00000000E+00  0.00000000E+00  0.00000000E+00
  0.00000000E+00  0.00000000E+00  0.00000000E+00
  0.00000000E+00  0.00000000E+00  0.00000000E+00
  0.00000000E+00  0.00000000E+00  0.00000000E+00
  0.00000000E+00  0.00000000E+00  0.00000000E+00
  0.00000000E+00  0.00000000E+00  0.00000000E+00
  0.00000000E+00  0.00000000E+00  0.00000000E+00
