O Ce                                    
   1.00000000000000     
    21.6439990999999985    0.0000000000000000    0.0000000000000000
     0.0000000000000000   21.6439990999999985    0.0000000000000000
     0.0000000000000000    0.0000000000000000   21.6439990999999985
   O    Ce
    23    11
Direct
  0.3774279960754016  0.5745440221742844  0.6195816841902918
  0.5495325392850925  0.5012802500439159  0.4409552332452417
  0.3131598625150064  0.5295215356541384  0.5206333720575912
  0.2443258635090224  0.6108037226251998  0.3357225005598886
  0.3737079120949873  0.7812569572704755  0.4465830083298561
  0.4525598287196226  0.5450444812448103  0.5165774774512483
  0.4664145744371433  0.6458159953168867  0.3446639118512149
  0.2241548654721336  0.4888660743611447  0.4438926526197933
  0.2865073393005652  0.7946777970072352  0.5658661366052697
  0.2468020523481080  0.6392596982692804  0.4974047202260061
  0.4883999422358880  0.4550733452211757  0.5933996680814595
  0.2158855281562077  0.5256937426662293  0.6000524129067475
  0.5350053027344746  0.6009740991488079  0.5933878377710833
  0.3761326438188348  0.5401680452739592  0.3982844754796765
  0.4551084480865030  0.6629840595106388  0.4686249483383069
  0.2755409466197418  0.6801128384091284  0.6598150924251193
  0.3577479168956331  0.7407454902114525  0.3026712169714204
  0.3203933185960678  0.4164133915539009  0.5711113878588280
  0.3463264503576460  0.6840440098213219  0.5557885885636196
  0.2341171317773305  0.7557483995953073  0.3946917037263147
  0.4317076949580705  0.7236012578359148  0.6333178670084180
  0.3304587278286653  0.6714918540182723  0.4033218397559667
  0.5705012290180246  0.5647390051648705  0.4545906944927861
  0.2713640342761925  0.7034929756800181  0.3216035919982039
  0.4200006463134453  0.7239862700430529  0.3833247928042707
  0.2382420849983393  0.4591078901069117  0.5333405436709143
  0.4665644637219420  0.5744355977041710  0.4128539055570791
  0.2830553339219761  0.5719059867378025  0.4205108595609217
  0.2879485887053769  0.7390251051416243  0.4786069390228974
  0.3370224842726886  0.7513082045516998  0.6345810623143291
  0.5482161254211118  0.5177484095995382  0.5478301592807453
  0.3927722355104752  0.4840622145600406  0.5771176073040588
  0.2773713119160084  0.6068245912325473  0.5905817254394585
  0.4454668786317333  0.6460174382827277  0.5705356065488295
 
  0.00000000E+00  0.00000000E+00  0.00000000E+00
  0.00000000E+00  0.00000000E+00  0.00000000E+00
  0.00000000E+00  0.00000000E+00  0.00000000E+00
  0.00000000E+00  0.00000000E+00  0.00000000E+00
  0.00000000E+00  0.00000000E+00  0.00000000E+00
  0.00000000E+00  0.00000000E+00  0.00000000E+00
  0.00000000E+00  0.00000000E+00  0.00000000E+00
  0.00000000E+00  0.00000000E+00  0.00000000E+00
  0.00000000E+00  0.00000000E+00  0.00000000E+00
  0.00000000E+00  0.00000000E+00  0.00000000E+00
  0.00000000E+00  0.00000000E+00  0.00000000E+00
  0.00000000E+00  0.00000000E+00  0.00000000E+00
  0.00000000E+00  0.00000000E+00  0.00000000E+00
  0.00000000E+00  0.00000000E+00  0.00000000E+00
  0.00000000E+00  0.00000000E+00  0.00000000E+00
  0.00000000E+00  0.00000000E+00  0.00000000E+00
  0.00000000E+00  0.00000000E+00  0.00000000E+00
  0.00000000E+00  0.00000000E+00  0.00000000E+00
  0.00000000E+00  0.00000000E+00  0.00000000E+00
  0.00000000E+00  0.00000000E+00  0.00000000E+00
  0.00000000E+00  0.00000000E+00  0.00000000E+00
  0.00000000E+00  0.00000000E+00  0.00000000E+00
  0.00000000E+00  0.00000000E+00  0.00000000E+00
  0.00000000E+00  0.00000000E+00  0.00000000E+00
  0.00000000E+00  0.00000000E+00  0.00000000E+00
  0.00000000E+00  0.00000000E+00  0.00000000E+00
  0.00000000E+00  0.00000000E+00  0.00000000E+00
  0.00000000E+00  0.00000000E+00  0.00000000E+00
  0.00000000E+00  0.00000000E+00  0.00000000E+00
  0.00000000E+00  0.00000000E+00  0.00000000E+00
  0.00000000E+00  0.00000000E+00  0.00000000E+00
  0.00000000E+00  0.00000000E+00  0.00000000E+00
  0.00000000E+00  0.00000000E+00  0.00000000E+00
  0.00000000E+00  0.00000000E+00  0.00000000E+00
