O Ce                                    
   1.00000000000000     
    21.6439990999999985    0.0000000000000000    0.0000000000000000
     0.0000000000000000   21.6439990999999985    0.0000000000000000
     0.0000000000000000    0.0000000000000000   21.6439990999999985
   O    Ce
    22    11
Direct
  0.3772186926980923  0.5740152823841309  0.6201249952115195
  0.5523858483374162  0.5288520267666642  0.4485106320512717
  0.3132680724825068  0.5297618221077394  0.5202815880641034
  0.2459289485134861  0.6106549947443001  0.3349731501362312
  0.3731080245538446  0.7814133411802699  0.4476830332531580
  0.4501965406145167  0.5464105892049391  0.5166879628906904
  0.4681451666611266  0.6478373608496590  0.3457364240467128
  0.2243072381028706  0.4893458007971279  0.4433810229170619
  0.2846784770200485  0.7937316856713016  0.5660708432256307
  0.2464383628792662  0.6394205719301452  0.4972869993402827
  0.4881497521535457  0.4533409030841444  0.5881015823298945
  0.2158665743761066  0.5252076311050460  0.5997811055772786
  0.5360900050710016  0.6027401385580002  0.5892428038346885
  0.3762694947649251  0.5384880604041189  0.3974871954348111
  0.4563807254084035  0.6638600893739288  0.4693044830906251
  0.2758489067389139  0.6791518398883865  0.6605936656097855
  0.3592955377406370  0.7418583090493108  0.3039249036221593
  0.3203860268014638  0.4160629041841000  0.5693252242213751
  0.3463846396254328  0.6842034737827872  0.5556731375892722
  0.2342155541941104  0.7547200500495890  0.3938309107230337
  0.4308310590426895  0.7233282488001312  0.6350395275219448
  0.3317075155148557  0.6710624991244346  0.4037133136199296
  0.2730452158916007  0.7032968488013860  0.3213467072302885
  0.4210180861134710  0.7255379823478517  0.3847614464778857
  0.2382301448254325  0.4590598234390562  0.5326409584157281
  0.4654799615618280  0.5754992811303672  0.4131449478125845
  0.2838361736341273  0.5718303314112567  0.4202826514982103
  0.2871279479883160  0.7385127555156134  0.4787048281052474
  0.3363281994460006  0.7511162873583038  0.6346898231741001
  0.5475566598079612  0.5183357588367872  0.5438109311389305
  0.3927283321332107  0.4837704528482286  0.5768656311585756
  0.2773335466946827  0.6064754718403278  0.5906413656732927
  0.4452159864376036  0.6460945344884843  0.5713601200611721
 
  0.00000000E+00  0.00000000E+00  0.00000000E+00
  0.00000000E+00  0.00000000E+00  0.00000000E+00
  0.00000000E+00  0.00000000E+00  0.00000000E+00
  0.00000000E+00  0.00000000E+00  0.00000000E+00
  0.00000000E+00  0.00000000E+00  0.00000000E+00
  0.00000000E+00  0.00000000E+00  0.00000000E+00
  0.00000000E+00  0.00000000E+00  0.00000000E+00
  0.00000000E+00  0.00000000E+00  0.00000000E+00
  0.00000000E+00  0.00000000E+00  0.00000000E+00
  0.00000000E+00  0.00000000E+00  0.00000000E+00
  0.00000000E+00  0.00000000E+00  0.00000000E+00
  0.00000000E+00  0.00000000E+00  0.00000000E+00
  0.00000000E+00  0.00000000E+00  0.00000000E+00
  0.00000000E+00  0.00000000E+00  0.00000000E+00
  0.00000000E+00  0.00000000E+00  0.00000000E+00
  0.00000000E+00  0.00000000E+00  0.00000000E+00
  0.00000000E+00  0.00000000E+00  0.00000000E+00
  0.00000000E+00  0.00000000E+00  0.00000000E+00
  0.00000000E+00  0.00000000E+00  0.00000000E+00
  0.00000000E+00  0.00000000E+00  0.00000000E+00
  0.00000000E+00  0.00000000E+00  0.00000000E+00
  0.00000000E+00  0.00000000E+00  0.00000000E+00
  0.00000000E+00  0.00000000E+00  0.00000000E+00
  0.00000000E+00  0.00000000E+00  0.00000000E+00
  0.00000000E+00  0.00000000E+00  0.00000000E+00
  0.00000000E+00  0.00000000E+00  0.00000000E+00
  0.00000000E+00  0.00000000E+00  0.00000000E+00
  0.00000000E+00  0.00000000E+00  0.00000000E+00
  0.00000000E+00  0.00000000E+00  0.00000000E+00
  0.00000000E+00  0.00000000E+00  0.00000000E+00
  0.00000000E+00  0.00000000E+00  0.00000000E+00
  0.00000000E+00  0.00000000E+00  0.00000000E+00
  0.00000000E+00  0.00000000E+00  0.00000000E+00
