O Ce                                    
   1.00000000000000     
    21.6439990999999985    0.0000000000000000    0.0000000000000000
     0.0000000000000000   21.6439990999999985    0.0000000000000000
     0.0000000000000000    0.0000000000000000   21.6439990999999985
   O    Ce
    22    11
Direct
  0.1681174188814524  0.3718016722671786  0.6172288084891586
  0.2626458255195183  0.4402369506904845  0.6654879866417879
  0.2513984773272531  0.3542256195077061  0.9244805451666231
  0.2629751754413810  0.6333882118281661  0.5867084960714204
  0.1041920041914332  0.4360450354183707  0.8841846001997019
  0.3880097041282706  0.4561118526256753  0.9143287696515436
  0.2683449986405658  0.5717532621658046  0.8364756846715016
  0.2114833618816667  0.3685606433263161  0.7631059179246351
  0.3713332330493497  0.4750552638794992  0.7494198308607208
  0.1711697839103578  0.4846927760870010  0.7919529846468708
  0.3877440390794361  0.6667193273981287  0.6722138397907734
  0.3228770641172436  0.3343087985240008  0.6536021218149172
  0.2214865231136815  0.6822028715463474  0.7291833769543706
  0.3632196389369342  0.3332344702698723  0.8152344949317750
  0.2919291437113786  0.4340103548172150  0.8396081239823457
  0.3691286541887593  0.5296591915294365  0.6138537444188865
  0.2966478875407921  0.5854160656325070  0.7010105982289545
  0.1065506245905850  0.5900156253697724  0.8031121716481487
  0.0647551041793208  0.4493134988236985  0.7358152754944530
  0.1802220380413953  0.5330297155544227  0.6714559165361880
  0.2635520880437854  0.4556033606322936  0.5400705189310732
  0.4150236008271060  0.5836105321414234  0.7938826194008689
  0.0719933646733260  0.5020786288829168  0.8166586680101747
  0.2607279301873528  0.3721561143056661  0.5868581944929597
  0.1939206982052484  0.4022331519977286  0.8570483387742223
  0.3533183932339968  0.5228358974973815  0.8414094102997363
  0.2024709056338996  0.5886560851554068  0.7623234587275023
  0.4014411337860220  0.5678430850680929  0.6970083265968228
  0.2683813854353439  0.5344465524951748  0.6073477493273060
  0.2936235241374318  0.6842946296026591  0.6634233835537084
  0.3462885315985766  0.3703765740223597  0.9027729202831947
  0.3183378519235062  0.3860625871109146  0.7399462516015997
  0.1573546372510481  0.4346249259804422  0.6952606302029007
 
  0.00000000E+00  0.00000000E+00  0.00000000E+00
  0.00000000E+00  0.00000000E+00  0.00000000E+00
  0.00000000E+00  0.00000000E+00  0.00000000E+00
  0.00000000E+00  0.00000000E+00  0.00000000E+00
  0.00000000E+00  0.00000000E+00  0.00000000E+00
  0.00000000E+00  0.00000000E+00  0.00000000E+00
  0.00000000E+00  0.00000000E+00  0.00000000E+00
  0.00000000E+00  0.00000000E+00  0.00000000E+00
  0.00000000E+00  0.00000000E+00  0.00000000E+00
  0.00000000E+00  0.00000000E+00  0.00000000E+00
  0.00000000E+00  0.00000000E+00  0.00000000E+00
  0.00000000E+00  0.00000000E+00  0.00000000E+00
  0.00000000E+00  0.00000000E+00  0.00000000E+00
  0.00000000E+00  0.00000000E+00  0.00000000E+00
  0.00000000E+00  0.00000000E+00  0.00000000E+00
  0.00000000E+00  0.00000000E+00  0.00000000E+00
  0.00000000E+00  0.00000000E+00  0.00000000E+00
  0.00000000E+00  0.00000000E+00  0.00000000E+00
  0.00000000E+00  0.00000000E+00  0.00000000E+00
  0.00000000E+00  0.00000000E+00  0.00000000E+00
  0.00000000E+00  0.00000000E+00  0.00000000E+00
  0.00000000E+00  0.00000000E+00  0.00000000E+00
  0.00000000E+00  0.00000000E+00  0.00000000E+00
  0.00000000E+00  0.00000000E+00  0.00000000E+00
  0.00000000E+00  0.00000000E+00  0.00000000E+00
  0.00000000E+00  0.00000000E+00  0.00000000E+00
  0.00000000E+00  0.00000000E+00  0.00000000E+00
  0.00000000E+00  0.00000000E+00  0.00000000E+00
  0.00000000E+00  0.00000000E+00  0.00000000E+00
  0.00000000E+00  0.00000000E+00  0.00000000E+00
  0.00000000E+00  0.00000000E+00  0.00000000E+00
  0.00000000E+00  0.00000000E+00  0.00000000E+00
  0.00000000E+00  0.00000000E+00  0.00000000E+00
