O Ce                                    
   1.00000000000000     
    21.6439990999999985    0.0000000000000000    0.0000000000000000
     0.0000000000000000   21.6439990999999985    0.0000000000000000
     0.0000000000000000    0.0000000000000000   21.6439990999999985
   O    Ce
    24    12
Direct
  0.4546383005454150  0.7223251965613785  0.1452005231673117
  0.6887108423926729  0.7780398339907870  0.0644931066874237
  0.5747587814125753  0.7699797037567011  0.2821343025077121
  0.6905891943850652  0.7526511491741317  0.2330063023422199
  0.5723893464149997  0.8098882951372965  0.0235696848313661
  0.6910656837143764  0.8581609423029489  0.1632874995693152
  0.6677238245868428  0.5948520313092784  0.2254912817422826
  0.4472415274829687  0.8497702263952577  0.2379936179760979
  0.6933697809792508  0.7512575264393792  0.9434293158756707
  0.7503358603824211  0.6682889977587754  0.1346921725292309
  0.5216115657543359  0.6627328427724524  0.2363033622884019
  0.5671121952893415  0.9402847959635648  0.1054569309698353
  0.5248514460433757  0.6933690050538356  0.0428296207194833
  0.6124646122287044  0.6792974620014429  0.1461937912046883
  0.8132589954155609  0.7673470815275288  0.2357691008675136
  0.7072607606906054  0.8426909298334773  0.3221360585505709
  0.7041417864675495  0.8926667367578426  0.0086299143334324
  0.6637273254275264  0.6297565038053908  0.0292579800938510
  0.5766863186119524  0.5624375043201921  0.1195885208672870
  0.4447483286870197  0.8704907621570646  0.0945727135170609
  0.5434758023510976  0.8188256455342331  0.1577692313630235
  0.5706793573130217  0.9196086150252469  0.2426616052123329
  0.6948964504582947  0.6879195685979824  0.3378830566160566
  0.8120326527107092  0.7950477113923853  0.0647548434388656
  0.4987169524301769  0.9127663687810755  0.1732392534367588
  0.4849299282973314  0.7876701642861136  0.0703676921299548
  0.7587532996257257  0.7651638234244764  0.1486962758010125
  0.7565127380125322  0.7586353278485004  0.3137141960803265
  0.6767840251775710  0.6009230821522589  0.1256991095271263
  0.6348406830534837  0.8748271529483178  0.0788910471116879
  0.6375809615813178  0.8484067856924232  0.2506932861989979
  0.6267813798171064  0.6746930224985898  0.2618419363283273
  0.7547080223277969  0.8116028018711282  0.9894971922021534
  0.4858506495492014  0.7624351405227890  0.2356431710985141
  0.5210095036780203  0.6365888044965416  0.1330047996670728
  0.6257172341019704  0.7155927621179995  0.0106629018787967
 
  0.00000000E+00  0.00000000E+00  0.00000000E+00
  0.00000000E+00  0.00000000E+00  0.00000000E+00
  0.00000000E+00  0.00000000E+00  0.00000000E+00
  0.00000000E+00  0.00000000E+00  0.00000000E+00
  0.00000000E+00  0.00000000E+00  0.00000000E+00
  0.00000000E+00  0.00000000E+00  0.00000000E+00
  0.00000000E+00  0.00000000E+00  0.00000000E+00
  0.00000000E+00  0.00000000E+00  0.00000000E+00
  0.00000000E+00  0.00000000E+00  0.00000000E+00
  0.00000000E+00  0.00000000E+00  0.00000000E+00
  0.00000000E+00  0.00000000E+00  0.00000000E+00
  0.00000000E+00  0.00000000E+00  0.00000000E+00
  0.00000000E+00  0.00000000E+00  0.00000000E+00
  0.00000000E+00  0.00000000E+00  0.00000000E+00
  0.00000000E+00  0.00000000E+00  0.00000000E+00
  0.00000000E+00  0.00000000E+00  0.00000000E+00
  0.00000000E+00  0.00000000E+00  0.00000000E+00
  0.00000000E+00  0.00000000E+00  0.00000000E+00
  0.00000000E+00  0.00000000E+00  0.00000000E+00
  0.00000000E+00  0.00000000E+00  0.00000000E+00
  0.00000000E+00  0.00000000E+00  0.00000000E+00
  0.00000000E+00  0.00000000E+00  0.00000000E+00
  0.00000000E+00  0.00000000E+00  0.00000000E+00
  0.00000000E+00  0.00000000E+00  0.00000000E+00
  0.00000000E+00  0.00000000E+00  0.00000000E+00
  0.00000000E+00  0.00000000E+00  0.00000000E+00
  0.00000000E+00  0.00000000E+00  0.00000000E+00
  0.00000000E+00  0.00000000E+00  0.00000000E+00
  0.00000000E+00  0.00000000E+00  0.00000000E+00
  0.00000000E+00  0.00000000E+00  0.00000000E+00
  0.00000000E+00  0.00000000E+00  0.00000000E+00
  0.00000000E+00  0.00000000E+00  0.00000000E+00
  0.00000000E+00  0.00000000E+00  0.00000000E+00
  0.00000000E+00  0.00000000E+00  0.00000000E+00
  0.00000000E+00  0.00000000E+00  0.00000000E+00
  0.00000000E+00  0.00000000E+00  0.00000000E+00
