O Ce                                    
   1.00000000000000     
    21.6439990997000002    0.0000000000000000    0.0000000000000000
     0.0000000000000000   21.6439990997000002    0.0000000000000000
     0.0000000000000000    0.0000000000000000   21.6439990997000002
   O    Ce
    25    12
Direct
  0.4532545629502403  0.7234055334041477  0.1460896124315090
  0.6890399463334570  0.7786052988456014  0.0670154989749800
  0.5747297266008743  0.7705375113145725  0.2835310488375946
  0.6904053624523333  0.7529496351897514  0.2336063215854141
  0.5726793016982210  0.8094738050073511  0.0260146224406843
  0.6903880259565561  0.8591747720630677  0.1644509452253828
  0.6728173979754795  0.6001091707986396  0.2270720608712672
  0.4465050753874829  0.8507451109823555  0.2385309806671240
  0.6924465422594366  0.7502534322805400  0.9464762599576211
  0.7492973769515571  0.6675966589839069  0.1347342804707003
  0.5230199509107504  0.6645465123866913  0.2346145844259459
  0.5673458238837349  0.9406593971755272  0.1069293632839310
  0.5224542223085468  0.6933946457046060  0.0435012167176441
  0.6107915019938036  0.6776287004291983  0.1393132401910628
  0.8136679726455948  0.7668481737950544  0.2368944420318112
  0.7076559889542794  0.8437435939912129  0.3223890685095229
  0.7046219510819672  0.8920518578221940  0.0094189836529730
  0.6692666949877438  0.6299644093715484  0.0288509012668488
  0.5756301575722352  0.5507232751451980  0.1538218757762399
  0.4446867151175943  0.8715573302773886  0.0952477506886837
  0.5426560463595491  0.8188094851343041  0.1592527438794540
  0.5696327404931403  0.9196761561211040  0.2441422987778241
  0.6947275673792130  0.6903360083087093  0.3402605681748475
  0.8122684739846513  0.7935194252257629  0.0658573202377598
  0.5754477207785024  0.5605122675555364  0.0867054543732909
  0.4986414009261494  0.9137884238419635  0.1741593607813984
  0.4842557437737364  0.7886379029947097  0.0710842556512709
  0.7593656930561996  0.7639905609515774  0.1494448264544097
  0.7570178131261573  0.7598055030623819  0.3148390882624936
  0.6763845129919510  0.5993615630999464  0.1257051161789311
  0.6353208968343365  0.8753012224835908  0.0795464022649120
  0.6373462787484461  0.8490938855199174  0.2514146143840558
  0.6275845537497424  0.6758777380331167  0.2637796753727863
  0.7544432974322374  0.8102933752061262  0.9905749145559246
  0.4856040166524834  0.7639235465989195  0.2361781396826908
  0.5187803715230014  0.6380282490909941  0.1328095184884583
  0.6260453331092798  0.7139469212831390  0.0157065948158155
 
  0.00000000E+00  0.00000000E+00  0.00000000E+00
  0.00000000E+00  0.00000000E+00  0.00000000E+00
  0.00000000E+00  0.00000000E+00  0.00000000E+00
  0.00000000E+00  0.00000000E+00  0.00000000E+00
  0.00000000E+00  0.00000000E+00  0.00000000E+00
  0.00000000E+00  0.00000000E+00  0.00000000E+00
  0.00000000E+00  0.00000000E+00  0.00000000E+00
  0.00000000E+00  0.00000000E+00  0.00000000E+00
  0.00000000E+00  0.00000000E+00  0.00000000E+00
  0.00000000E+00  0.00000000E+00  0.00000000E+00
  0.00000000E+00  0.00000000E+00  0.00000000E+00
  0.00000000E+00  0.00000000E+00  0.00000000E+00
  0.00000000E+00  0.00000000E+00  0.00000000E+00
  0.00000000E+00  0.00000000E+00  0.00000000E+00
  0.00000000E+00  0.00000000E+00  0.00000000E+00
  0.00000000E+00  0.00000000E+00  0.00000000E+00
  0.00000000E+00  0.00000000E+00  0.00000000E+00
  0.00000000E+00  0.00000000E+00  0.00000000E+00
  0.00000000E+00  0.00000000E+00  0.00000000E+00
  0.00000000E+00  0.00000000E+00  0.00000000E+00
  0.00000000E+00  0.00000000E+00  0.00000000E+00
  0.00000000E+00  0.00000000E+00  0.00000000E+00
  0.00000000E+00  0.00000000E+00  0.00000000E+00
  0.00000000E+00  0.00000000E+00  0.00000000E+00
  0.00000000E+00  0.00000000E+00  0.00000000E+00
  0.00000000E+00  0.00000000E+00  0.00000000E+00
  0.00000000E+00  0.00000000E+00  0.00000000E+00
  0.00000000E+00  0.00000000E+00  0.00000000E+00
  0.00000000E+00  0.00000000E+00  0.00000000E+00
  0.00000000E+00  0.00000000E+00  0.00000000E+00
  0.00000000E+00  0.00000000E+00  0.00000000E+00
  0.00000000E+00  0.00000000E+00  0.00000000E+00
  0.00000000E+00  0.00000000E+00  0.00000000E+00
  0.00000000E+00  0.00000000E+00  0.00000000E+00
  0.00000000E+00  0.00000000E+00  0.00000000E+00
  0.00000000E+00  0.00000000E+00  0.00000000E+00
  0.00000000E+00  0.00000000E+00  0.00000000E+00
