O Ce                                    
   1.00000000000000     
    21.6439990999999985    0.0000000000000000    0.0000000000000000
     0.0000000000000000   21.6439990999999985    0.0000000000000000
     0.0000000000000000    0.0000000000000000   21.6439990999999985
   O    Ce
    23    12
Direct
  0.5493446115859126  0.8194983377936436  0.4546024040268804
  0.8165369567604377  0.5961674863548374  0.5930401763061820
  0.5758166987799703  0.6637905898878211  0.5830288664245273
  0.6985434904186254  0.7817726031189109  0.3982507641977727
  0.7383168852305477  0.4882435059763270  0.4169835350479631
  0.5594429480431523  0.7078265409165287  0.3363633558649884
  0.4272405447152923  0.5800629562876668  0.5427646798530633
  0.5327816985872068  0.5432344259850925  0.5901133854736363
  0.4628197522490524  0.7156794061251781  0.5630347765315988
  0.5851069691849713  0.7844383526322065  0.6188826489856852
  0.6726373849093292  0.6198824329927981  0.6547363319194432
  0.6095803729978319  0.7069743027524278  0.4555233296323243
  0.6331016548997159  0.5314653427046637  0.3586002216862890
  0.5929764852379678  0.5622164097053497  0.4773079663646511
  0.6853817382686208  0.4935385927464417  0.5352308194809144
  0.5229980567546465  0.6653539491610150  0.6968088477952059
  0.7080009676977230  0.7357311429909406  0.6695587500411259
  0.4917595035430499  0.5820267134144018  0.4092531897030670
  0.7703811016825539  0.7306115053953486  0.5299606438961745
  0.6804316030983867  0.6486522409022386  0.3660544762876932
  0.7873305123389962  0.6120878952319352  0.4240232253040898
  0.5476833420650067  0.4451515900234262  0.4627221399845215
  0.7077982834462321  0.6234424273268436  0.5291846543210622
  0.4767793043063409  0.6321969278130449  0.6142725307253124
  0.7353311234024202  0.5649603157842774  0.3459823374148725
  0.7250248354821918  0.6977159792975476  0.4509122886829242
  0.5472127930725432  0.7563477316067310  0.5335579048574846
  0.6032543789406736  0.7819599094348478  0.3821886873283122
  0.7604728346273546  0.6720982974081742  0.6128632365391172
  0.6130354882942710  0.7070594617638675  0.6754584205350062
  0.4910661514180411  0.5261979968821566  0.4914031374294043
  0.6397086928661482  0.4726775561963784  0.4433097630922717
  0.7804399394275825  0.5450276303638932  0.5076949323801087
  0.5792970779826502  0.6221301245976342  0.3865870828194211
  0.6298722741508269  0.5712830131562207  0.5772481548753030
 
  0.00000000E+00  0.00000000E+00  0.00000000E+00
  0.00000000E+00  0.00000000E+00  0.00000000E+00
  0.00000000E+00  0.00000000E+00  0.00000000E+00
  0.00000000E+00  0.00000000E+00  0.00000000E+00
  0.00000000E+00  0.00000000E+00  0.00000000E+00
  0.00000000E+00  0.00000000E+00  0.00000000E+00
  0.00000000E+00  0.00000000E+00  0.00000000E+00
  0.00000000E+00  0.00000000E+00  0.00000000E+00
  0.00000000E+00  0.00000000E+00  0.00000000E+00
  0.00000000E+00  0.00000000E+00  0.00000000E+00
  0.00000000E+00  0.00000000E+00  0.00000000E+00
  0.00000000E+00  0.00000000E+00  0.00000000E+00
  0.00000000E+00  0.00000000E+00  0.00000000E+00
  0.00000000E+00  0.00000000E+00  0.00000000E+00
  0.00000000E+00  0.00000000E+00  0.00000000E+00
  0.00000000E+00  0.00000000E+00  0.00000000E+00
  0.00000000E+00  0.00000000E+00  0.00000000E+00
  0.00000000E+00  0.00000000E+00  0.00000000E+00
  0.00000000E+00  0.00000000E+00  0.00000000E+00
  0.00000000E+00  0.00000000E+00  0.00000000E+00
  0.00000000E+00  0.00000000E+00  0.00000000E+00
  0.00000000E+00  0.00000000E+00  0.00000000E+00
  0.00000000E+00  0.00000000E+00  0.00000000E+00
  0.00000000E+00  0.00000000E+00  0.00000000E+00
  0.00000000E+00  0.00000000E+00  0.00000000E+00
  0.00000000E+00  0.00000000E+00  0.00000000E+00
  0.00000000E+00  0.00000000E+00  0.00000000E+00
  0.00000000E+00  0.00000000E+00  0.00000000E+00
  0.00000000E+00  0.00000000E+00  0.00000000E+00
  0.00000000E+00  0.00000000E+00  0.00000000E+00
  0.00000000E+00  0.00000000E+00  0.00000000E+00
  0.00000000E+00  0.00000000E+00  0.00000000E+00
  0.00000000E+00  0.00000000E+00  0.00000000E+00
  0.00000000E+00  0.00000000E+00  0.00000000E+00
  0.00000000E+00  0.00000000E+00  0.00000000E+00
