O Ce                                    
   1.00000000000000     
    21.6439990999999985    0.0000000000000000    0.0000000000000000
     0.0000000000000000   21.6439990999999985    0.0000000000000000
     0.0000000000000000    0.0000000000000000   21.6439990999999985
   O    Ce
    26    13
Direct
  0.4034307954840016  0.8254174026910911  0.7766134773456730
  0.2076918603725620  0.8098559473592160  0.9547719297563565
  0.3204987713037948  0.7320675121753342  0.6880230034417881
  0.1773635464153600  0.8957766057932288  0.5091709744017210
  0.3191354294522428  0.9115874227240084  0.7584834964434255
  0.2480521637998518  0.8484793699434714  0.8437814272602721
  0.2412715135803965  0.8261974196451727  0.7013182631107908
  0.0472905895190968  0.8039448203816172  0.5202495930793559
  0.3433681935794961  0.7821329845407984  0.8933345988034338
  0.2202050702042533  0.7180855512146893  0.8040083604235011
  0.0136032529420117  0.8565496790334316  0.8397220786359925
  0.1157408269456526  0.8726456102861604  0.7693363693944444
  0.1117883780920286  0.9178497842514791  0.9326404686964690
  0.3088611155956523  0.9273058176839586  0.9201602054800696
  0.1787768646598066  0.9598360942475109  0.8402505158079308
  0.0443329934550599  0.9559680515182551  0.5813290524479627
  0.0262679326620259  0.6915257275600629  0.7842565167449739
  0.1143614868499945  0.7390249245968912  0.7117274142881783
  0.0463716207311368  0.9788968107487459  0.7548886704921439
  0.1721711604088396  0.6277567194742308  0.7032927440257686
  0.1789410764270332  0.9372487979772136  0.6691030533588612
  0.3162818734361729  0.8620839079780481  0.6052059926886612
  0.0439876405007930  0.6703389869859895  0.6315088086568504
  0.0235793883244052  0.8278166319666460  0.6827605102641406
  0.1129558836537257  0.8593503255890061  0.6051120580126053
  0.1842613884772926  0.7590712523807587  0.6057780589186913
  0.2177530934114960  0.8603245766795153  0.5976523263575891
  0.2107175991299548  0.9067345607067037  0.9276337827254613
  0.0775011010353975  0.7620373955916080  0.6094915451402938
  0.3555476615059113  0.8719676937560902  0.8502711666971116
  0.0720106860000125  0.9262167728014221  0.6748213647682900
  0.2513401911121125  0.7534347768348458  0.8879142380217537
  0.3488611191112208  0.8266989778896088  0.6933585278193601
  0.0447554399217643  0.7914689242406664  0.7742923793789500
  0.0807829348353838  0.8949791833340360  0.5138749615670581
  0.0786757907746415  0.6412942051888875  0.7184084789908215
  0.0733219932481482  0.9377336057699892  0.8430461685217806
  0.2225688896122537  0.7186427778350635  0.7000109439981677
  0.2173718931231311  0.9095053363863378  0.7595442181394376
 
  0.00000000E+00  0.00000000E+00  0.00000000E+00
  0.00000000E+00  0.00000000E+00  0.00000000E+00
  0.00000000E+00  0.00000000E+00  0.00000000E+00
  0.00000000E+00  0.00000000E+00  0.00000000E+00
  0.00000000E+00  0.00000000E+00  0.00000000E+00
  0.00000000E+00  0.00000000E+00  0.00000000E+00
  0.00000000E+00  0.00000000E+00  0.00000000E+00
  0.00000000E+00  0.00000000E+00  0.00000000E+00
  0.00000000E+00  0.00000000E+00  0.00000000E+00
  0.00000000E+00  0.00000000E+00  0.00000000E+00
  0.00000000E+00  0.00000000E+00  0.00000000E+00
  0.00000000E+00  0.00000000E+00  0.00000000E+00
  0.00000000E+00  0.00000000E+00  0.00000000E+00
  0.00000000E+00  0.00000000E+00  0.00000000E+00
  0.00000000E+00  0.00000000E+00  0.00000000E+00
  0.00000000E+00  0.00000000E+00  0.00000000E+00
  0.00000000E+00  0.00000000E+00  0.00000000E+00
  0.00000000E+00  0.00000000E+00  0.00000000E+00
  0.00000000E+00  0.00000000E+00  0.00000000E+00
  0.00000000E+00  0.00000000E+00  0.00000000E+00
  0.00000000E+00  0.00000000E+00  0.00000000E+00
  0.00000000E+00  0.00000000E+00  0.00000000E+00
  0.00000000E+00  0.00000000E+00  0.00000000E+00
  0.00000000E+00  0.00000000E+00  0.00000000E+00
  0.00000000E+00  0.00000000E+00  0.00000000E+00
  0.00000000E+00  0.00000000E+00  0.00000000E+00
  0.00000000E+00  0.00000000E+00  0.00000000E+00
  0.00000000E+00  0.00000000E+00  0.00000000E+00
  0.00000000E+00  0.00000000E+00  0.00000000E+00
  0.00000000E+00  0.00000000E+00  0.00000000E+00
  0.00000000E+00  0.00000000E+00  0.00000000E+00
  0.00000000E+00  0.00000000E+00  0.00000000E+00
  0.00000000E+00  0.00000000E+00  0.00000000E+00
  0.00000000E+00  0.00000000E+00  0.00000000E+00
  0.00000000E+00  0.00000000E+00  0.00000000E+00
  0.00000000E+00  0.00000000E+00  0.00000000E+00
  0.00000000E+00  0.00000000E+00  0.00000000E+00
  0.00000000E+00  0.00000000E+00  0.00000000E+00
  0.00000000E+00  0.00000000E+00  0.00000000E+00
