O Ce                                    
   1.00000000000000     
    21.6439990999999985    0.0000000000000000    0.0000000000000000
     0.0000000000000000   21.6439990999999985    0.0000000000000000
     0.0000000000000000    0.0000000000000000   21.6439990999999985
   O    Ce
    27    13
Direct
  0.3992875939440134  0.8160087775777176  0.7773822606523347
  0.2112330037025649  0.8254475393144783  0.9648345803407550
  0.3193409933727367  0.7294969750139115  0.6836028118078770
  0.1752230962127821  0.8995998639109437  0.5098507611364033
  0.3209136924900726  0.9072349305727603  0.7586018695562297
  0.2448467626691823  0.8513813495660593  0.8469560515458753
  0.2410010567753167  0.8246976792064492  0.6998280593308078
  0.0449758770196862  0.8066340537107843  0.5200116940102094
  0.3326600526672321  0.7771474084958326  0.8969731044562984
  0.2089058852836314  0.7190188474364597  0.8033161219509610
  0.0267264282747139  0.8463470022315218  0.8464914775986260
  0.1194643173969698  0.8731990972874119  0.7677614887317563
  0.1172172720167139  0.9279274364549337  0.9355030898305147
  0.3150497614181774  0.9291135995336999  0.9170939940224018
  0.1804230058545005  0.9630627620895916  0.8375234185151912
  0.0396655609037077  0.9538885012388110  0.5855625451850314
  0.0294053020197015  0.6840109945889342  0.7752209831372130
  0.1178231040070281  0.7336808966369842  0.7044569768007078
  0.0426694326621865  0.9735925452188146  0.7589649803575427
  0.1756512034103939  0.6250766713827246  0.6944511998662773
  0.1793250878542891  0.9373470432657882  0.6689076511220298
  0.3161439535878083  0.8631656654783922  0.6050484744156378
  0.0465729506129828  0.6684594607033927  0.6227083739732452
  0.0289622004137559  0.8230876977058919  0.6875528332541178
  0.1124401863220255  0.8595541894444046  0.6052238882304962
  0.1850057834552974  0.7601095539595558  0.6006400372944610
  0.1527980814366965  0.7415422127117554  0.8345872115074684
  0.2169836851812950  0.8630418114246605  0.5966980064071871
  0.2156591161527120  0.9192913342994325  0.9281080164708142
  0.0756685468484554  0.7627572868248131  0.6075866492763921
  0.3538327980397844  0.8642778185476445  0.8508070024438761
  0.0703466947318957  0.9217912668764264  0.6785860213501405
  0.2375369127447209  0.7613209814538928  0.8979153097572039
  0.3480657269489141  0.8252249020259198  0.6921724534229000
  0.0596299254847624  0.7825010947474472  0.7795846962671125
  0.0781292891339128  0.8980129979932743  0.5158406758413244
  0.0807708961522966  0.6360048334589040  0.7085954874712326
  0.0756441898395225  0.9338453959395336  0.8448664985618048
  0.2221623747999129  0.7172508610003860  0.6890479518972118
  0.2185256978350953  0.9099007081446662  0.7586489916923664
 
  0.00000000E+00  0.00000000E+00  0.00000000E+00
  0.00000000E+00  0.00000000E+00  0.00000000E+00
  0.00000000E+00  0.00000000E+00  0.00000000E+00
  0.00000000E+00  0.00000000E+00  0.00000000E+00
  0.00000000E+00  0.00000000E+00  0.00000000E+00
  0.00000000E+00  0.00000000E+00  0.00000000E+00
  0.00000000E+00  0.00000000E+00  0.00000000E+00
  0.00000000E+00  0.00000000E+00  0.00000000E+00
  0.00000000E+00  0.00000000E+00  0.00000000E+00
  0.00000000E+00  0.00000000E+00  0.00000000E+00
  0.00000000E+00  0.00000000E+00  0.00000000E+00
  0.00000000E+00  0.00000000E+00  0.00000000E+00
  0.00000000E+00  0.00000000E+00  0.00000000E+00
  0.00000000E+00  0.00000000E+00  0.00000000E+00
  0.00000000E+00  0.00000000E+00  0.00000000E+00
  0.00000000E+00  0.00000000E+00  0.00000000E+00
  0.00000000E+00  0.00000000E+00  0.00000000E+00
  0.00000000E+00  0.00000000E+00  0.00000000E+00
  0.00000000E+00  0.00000000E+00  0.00000000E+00
  0.00000000E+00  0.00000000E+00  0.00000000E+00
  0.00000000E+00  0.00000000E+00  0.00000000E+00
  0.00000000E+00  0.00000000E+00  0.00000000E+00
  0.00000000E+00  0.00000000E+00  0.00000000E+00
  0.00000000E+00  0.00000000E+00  0.00000000E+00
  0.00000000E+00  0.00000000E+00  0.00000000E+00
  0.00000000E+00  0.00000000E+00  0.00000000E+00
  0.00000000E+00  0.00000000E+00  0.00000000E+00
  0.00000000E+00  0.00000000E+00  0.00000000E+00
  0.00000000E+00  0.00000000E+00  0.00000000E+00
  0.00000000E+00  0.00000000E+00  0.00000000E+00
  0.00000000E+00  0.00000000E+00  0.00000000E+00
  0.00000000E+00  0.00000000E+00  0.00000000E+00
  0.00000000E+00  0.00000000E+00  0.00000000E+00
  0.00000000E+00  0.00000000E+00  0.00000000E+00
  0.00000000E+00  0.00000000E+00  0.00000000E+00
  0.00000000E+00  0.00000000E+00  0.00000000E+00
  0.00000000E+00  0.00000000E+00  0.00000000E+00
  0.00000000E+00  0.00000000E+00  0.00000000E+00
  0.00000000E+00  0.00000000E+00  0.00000000E+00
  0.00000000E+00  0.00000000E+00  0.00000000E+00
