O Ce                                    
   1.00000000000000     
    21.6439990999999985    0.0000000000000000    0.0000000000000000
     0.0000000000000000   21.6439990999999985    0.0000000000000000
     0.0000000000000000    0.0000000000000000   21.6439990999999985
   O    Ce
    25    13
Direct
  0.8162079514362561  0.3112518649568053  0.9488943082857484
  0.7513993760085307  0.2683445956693012  0.8436181557911370
  0.8670787083399638  0.0843450354234771  0.7128003913503884
  0.8394234805636566  0.2120168254902539  0.7068351439327646
  0.6124407859730309  0.2523475882576112  0.7947894919516413
  0.6538215219633164  0.1257277413507550  0.8501912204093147
  0.7269860778492586  0.0181466980489457  0.8279393951313975
  0.9594527924912223  0.1103669229206205  0.8342860035579445
  0.6408600433544835  0.0480242787048070  0.9532287171209697
  0.8149126083314649  0.0411111251463794  0.9512912118565219
  0.7970559744298622  0.3812361499949430  0.8118768152390804
  0.8309657349038565  0.1125437417382219  0.8378116757108389
  0.5590818532440360  0.0463483806713578  0.8187992451769280
  0.5972326163794848  0.0629717730135818  0.6597521444400605
  0.7164711577203765  0.1272840318280132  0.5728131136621870
  0.5937404318639110  0.2233986103286755  0.6230365125372505
  0.7363410200100543  0.1763010610348110  0.9342431332836670
  0.7283652795979185  0.2998973497529713  0.7005859809796636
  0.8768403380794919  0.2441585147489316  0.8226365214340887
  0.6668364757682832  0.3250598030124713  0.9200770495748034
  0.5726029238792685  0.1853681222775662  0.9260577056173073
  0.6782761219007371  0.1596841523361050  0.6950661537439881
  0.8806255316044985  0.9909818980213868  0.8378612714600047
  0.7457412762151510  0.0444086562821347  0.7050904156716757
  0.8925241905566114  0.1563771617257042  0.9499186241145917
  0.6474202338840609  0.0638743664298380  0.7566772114672666
  0.8136442114332588  0.0182831253415823  0.7747538167002905
  0.6255411631167948  0.1296659766522975  0.6015987582057111
  0.5682352720185073  0.0894276207903984  0.9012819797386890
  0.7804773185984859  0.1321590951773047  0.6567639224621322
  0.8995517599659119  0.0654147589255108  0.9060436086176935
  0.6400220891015558  0.2552103164022890  0.7034471946866974
  0.6526446136106033  0.2282019404685132  0.8858751994199110
  0.8277739776331432  0.2176499571098769  0.9125504814582771
  0.8072191211936309  0.2955661975148082  0.7600994239253137
  0.7521464208690091  0.3611097661985626  0.8972544307846441
  0.9044874025196955  0.1574515026667323  0.7719393710467245
  0.7287089252779716  0.0730129362244408  0.9143814335106502
 
  0.00000000E+00  0.00000000E+00  0.00000000E+00
  0.00000000E+00  0.00000000E+00  0.00000000E+00
  0.00000000E+00  0.00000000E+00  0.00000000E+00
  0.00000000E+00  0.00000000E+00  0.00000000E+00
  0.00000000E+00  0.00000000E+00  0.00000000E+00
  0.00000000E+00  0.00000000E+00  0.00000000E+00
  0.00000000E+00  0.00000000E+00  0.00000000E+00
  0.00000000E+00  0.00000000E+00  0.00000000E+00
  0.00000000E+00  0.00000000E+00  0.00000000E+00
  0.00000000E+00  0.00000000E+00  0.00000000E+00
  0.00000000E+00  0.00000000E+00  0.00000000E+00
  0.00000000E+00  0.00000000E+00  0.00000000E+00
  0.00000000E+00  0.00000000E+00  0.00000000E+00
  0.00000000E+00  0.00000000E+00  0.00000000E+00
  0.00000000E+00  0.00000000E+00  0.00000000E+00
  0.00000000E+00  0.00000000E+00  0.00000000E+00
  0.00000000E+00  0.00000000E+00  0.00000000E+00
  0.00000000E+00  0.00000000E+00  0.00000000E+00
  0.00000000E+00  0.00000000E+00  0.00000000E+00
  0.00000000E+00  0.00000000E+00  0.00000000E+00
  0.00000000E+00  0.00000000E+00  0.00000000E+00
  0.00000000E+00  0.00000000E+00  0.00000000E+00
  0.00000000E+00  0.00000000E+00  0.00000000E+00
  0.00000000E+00  0.00000000E+00  0.00000000E+00
  0.00000000E+00  0.00000000E+00  0.00000000E+00
  0.00000000E+00  0.00000000E+00  0.00000000E+00
  0.00000000E+00  0.00000000E+00  0.00000000E+00
  0.00000000E+00  0.00000000E+00  0.00000000E+00
  0.00000000E+00  0.00000000E+00  0.00000000E+00
  0.00000000E+00  0.00000000E+00  0.00000000E+00
  0.00000000E+00  0.00000000E+00  0.00000000E+00
  0.00000000E+00  0.00000000E+00  0.00000000E+00
  0.00000000E+00  0.00000000E+00  0.00000000E+00
  0.00000000E+00  0.00000000E+00  0.00000000E+00
  0.00000000E+00  0.00000000E+00  0.00000000E+00
  0.00000000E+00  0.00000000E+00  0.00000000E+00
  0.00000000E+00  0.00000000E+00  0.00000000E+00
  0.00000000E+00  0.00000000E+00  0.00000000E+00
