 O Ce                                   
   1.00000000000000     
    20.9244995116999988    0.0000000000000000    0.0000000000000000
     0.0000000000000000   20.9244995116999988    0.0000000000000000
     0.0000000000000000    0.0000000000000000   20.9244995116999988
   O    Ce
    29    14
Direct
  0.4825791057649490  0.2772791872012152  0.4761546419820074
  0.6224175059341596  0.6373822787455289  0.4141052087478456
  0.6023116912949359  0.3136043525165100  0.4242060039723087
  0.4080123305012162  0.5458928359759350  0.5340423215833461
  0.7051453094583249  0.4675792765927583  0.4424324390658491
  0.6761793723553399  0.3607506368423204  0.5662645400955495
  0.4638464330607145  0.6680442072275131  0.3869083040464006
  0.5851224590343416  0.5961197036002650  0.2577144959092253
  0.5156612906691175  0.5738028075725268  0.4618745604899232
  0.3199543692948807  0.4040110013840722  0.5052051972524444
  0.4547722282932886  0.4015944633136406  0.2384297293123103
  0.5418034922464708  0.2792980977291491  0.2771750229409268
  0.5298897962834788  0.3910746634960796  0.3448511838407095
  0.6894962834159126  0.5827931954966565  0.5104457096887038
  0.5876886425520296  0.4623980160149644  0.1875033202896157
  0.4149327034748925  0.3331122189558417  0.3806975162766357
  0.4294254384356521  0.4471676479403917  0.4482429591738203
  0.4703877459425366  0.5255041518729846  0.3305201886754942
  0.5087880818355933  0.6824275115471885  0.5347214413509744
  0.5825229450476804  0.4325983740291907  0.4881875902313957
  0.6464225665275694  0.4094802690010828  0.2863915734964025
  0.3304810575670085  0.4721734410487097  0.3665122269191460
  0.7473150910747832  0.5238401788359800  0.3106494867087010
  0.5777694112545939  0.5394052914277486  0.5737277523162684
  0.4737416560279965  0.3854245419122805  0.5565671392572888
  0.6289708550841926  0.3870007746435864  0.6135292548425297
  0.6182110708281922  0.5184495245451060  0.3570130330359533
  0.7250589407035420  0.5892440539302758  0.2969916696871817
  0.3375123781848633  0.6032781455191389  0.4454835423542616
  0.4945380053835554  0.4875728489432941  0.5277302175704540
  0.3325106907749254  0.5017321445794289  0.4621038903554772
  0.5919922455264363  0.6296848543419317  0.5173761203499538
  0.6289745862637852  0.4120876721651930  0.3888610160308832
  0.4012633109258334  0.3484750662815126  0.4863588553872225
  0.5119278749417813  0.2865227186793493  0.3723398411963892
  0.5521036734362977  0.3779507197441458  0.2353843087260387
  0.4225599529909557  0.4360551030768942  0.3319549232201675
  0.7024246034481779  0.5672624445748899  0.4042704985467382
  0.6473154009931553  0.5181641611341535  0.2490349946773218
  0.5710664527402808  0.3285749878749784  0.5338717398767400
  0.4277002747341370  0.6415440180667877  0.4765665255045291
  0.6691392352027902  0.4738707805683755  0.5507873171127785
  0.5348367212640940  0.6010633827066797  0.3492106159807966
 
  0.00000000E+00  0.00000000E+00  0.00000000E+00
  0.00000000E+00  0.00000000E+00  0.00000000E+00
  0.00000000E+00  0.00000000E+00  0.00000000E+00
  0.00000000E+00  0.00000000E+00  0.00000000E+00
  0.00000000E+00  0.00000000E+00  0.00000000E+00
  0.00000000E+00  0.00000000E+00  0.00000000E+00
  0.00000000E+00  0.00000000E+00  0.00000000E+00
  0.00000000E+00  0.00000000E+00  0.00000000E+00
  0.00000000E+00  0.00000000E+00  0.00000000E+00
  0.00000000E+00  0.00000000E+00  0.00000000E+00
  0.00000000E+00  0.00000000E+00  0.00000000E+00
  0.00000000E+00  0.00000000E+00  0.00000000E+00
  0.00000000E+00  0.00000000E+00  0.00000000E+00
  0.00000000E+00  0.00000000E+00  0.00000000E+00
  0.00000000E+00  0.00000000E+00  0.00000000E+00
  0.00000000E+00  0.00000000E+00  0.00000000E+00
  0.00000000E+00  0.00000000E+00  0.00000000E+00
  0.00000000E+00  0.00000000E+00  0.00000000E+00
  0.00000000E+00  0.00000000E+00  0.00000000E+00
  0.00000000E+00  0.00000000E+00  0.00000000E+00
  0.00000000E+00  0.00000000E+00  0.00000000E+00
  0.00000000E+00  0.00000000E+00  0.00000000E+00
  0.00000000E+00  0.00000000E+00  0.00000000E+00
  0.00000000E+00  0.00000000E+00  0.00000000E+00
  0.00000000E+00  0.00000000E+00  0.00000000E+00
  0.00000000E+00  0.00000000E+00  0.00000000E+00
  0.00000000E+00  0.00000000E+00  0.00000000E+00
  0.00000000E+00  0.00000000E+00  0.00000000E+00
  0.00000000E+00  0.00000000E+00  0.00000000E+00
  0.00000000E+00  0.00000000E+00  0.00000000E+00
  0.00000000E+00  0.00000000E+00  0.00000000E+00
  0.00000000E+00  0.00000000E+00  0.00000000E+00
  0.00000000E+00  0.00000000E+00  0.00000000E+00
  0.00000000E+00  0.00000000E+00  0.00000000E+00
  0.00000000E+00  0.00000000E+00  0.00000000E+00
  0.00000000E+00  0.00000000E+00  0.00000000E+00
  0.00000000E+00  0.00000000E+00  0.00000000E+00
  0.00000000E+00  0.00000000E+00  0.00000000E+00
  0.00000000E+00  0.00000000E+00  0.00000000E+00
  0.00000000E+00  0.00000000E+00  0.00000000E+00
  0.00000000E+00  0.00000000E+00  0.00000000E+00
  0.00000000E+00  0.00000000E+00  0.00000000E+00
  0.00000000E+00  0.00000000E+00  0.00000000E+00
