O Ce                                    
   1.00000000000000     
    20.9244995120000006    0.0000000000000000    0.0000000000000000
     0.0000000000000000   20.9244995120000006    0.0000000000000000
     0.0000000000000000    0.0000000000000000   20.9244995120000006
   O    Ce
    27    14
Direct
  0.3662568758871750  0.4721642307289875  0.3864761235082667
  0.5564352891348968  0.5298514815735799  0.4649285380203638
  0.4633791240191756  0.4497551141746975  0.2203140822907774
  0.3693143827689296  0.3861007227304208  0.2829644566406613
  0.4567764125394687  0.4800793793868658  0.5431957856543371
  0.5482764054744236  0.3846416031679668  0.3002565221254460
  0.5562334258023436  0.6250828216547878  0.5588369134762311
  0.5392952868086710  0.2968989274018306  0.2040919933419189
  0.6539692991327626  0.4683369446485193  0.5385596414162653
  0.4616026094511505  0.6145628205064322  0.4241737688344289
  0.3861635904520059  0.5927850680877476  0.2754904319120903
  0.5525276977220048  0.4008743173984198  0.5967345395027017
  0.5512087570978432  0.6834574863659584  0.3649693879687495
  0.7459556749758143  0.4402335880703172  0.4077791556993354
  0.3799246498236256  0.3382615472803758  0.5064356293885551
  0.7115590817935398  0.3154235311758997  0.4927849538197138
  0.6261171022353229  0.3929094761764679  0.4317182397712680
  0.4711782846411123  0.4010978176204620  0.4358742721505545
  0.4788214601373617  0.5200413491694867  0.3327762217246584
  0.6237768350968184  0.4267130011805316  0.2016555682981133
  0.7247487113324920  0.3493183418169537  0.2862703782332786
  0.6267505164634655  0.5061703922564017  0.3347796885603861
  0.6297946106219393  0.2907865981632471  0.3467385990569320
  0.6617763339573257  0.6056669144993384  0.4479045654154532
  0.4534956717304438  0.3015686425949580  0.3446012660216070
  0.5379700586829620  0.5931184793745564  0.2417287110525839
  0.5460476590672915  0.3120189382309017  0.5015651702499666
  0.5456982076964925  0.3292640870844507  0.3945556171508739
  0.4802248443771298  0.6317339221912882  0.3147041530129752
  0.5639290230478062  0.4934841407918965  0.2570814023496616
  0.4624189628571325  0.3454152315018673  0.2449244643208231
  0.5669061570955556  0.6431811532541596  0.4610051350044195
  0.7192727638802612  0.3466476383528042  0.3894985622873505
  0.3864803825182059  0.4937144165628181  0.2811953676185108
  0.5604448174050635  0.5178041817233343  0.5763994964928307
  0.4531145848054752  0.5123353982092744  0.4395733109613889
  0.3728889035985031  0.3612394802976965  0.3968601571159182
  0.4641912436890177  0.3725050603325543  0.5437811640462856
  0.6368613474192809  0.3650330087026646  0.5370522902332866
  0.6646592183872653  0.5049426589309068  0.4299933817991503
  0.6324844552999538  0.3366202259260408  0.2433058787744936
 
  0.00000000E+00  0.00000000E+00  0.00000000E+00
  0.00000000E+00  0.00000000E+00  0.00000000E+00
  0.00000000E+00  0.00000000E+00  0.00000000E+00
  0.00000000E+00  0.00000000E+00  0.00000000E+00
  0.00000000E+00  0.00000000E+00  0.00000000E+00
  0.00000000E+00  0.00000000E+00  0.00000000E+00
  0.00000000E+00  0.00000000E+00  0.00000000E+00
  0.00000000E+00  0.00000000E+00  0.00000000E+00
  0.00000000E+00  0.00000000E+00  0.00000000E+00
  0.00000000E+00  0.00000000E+00  0.00000000E+00
  0.00000000E+00  0.00000000E+00  0.00000000E+00
  0.00000000E+00  0.00000000E+00  0.00000000E+00
  0.00000000E+00  0.00000000E+00  0.00000000E+00
  0.00000000E+00  0.00000000E+00  0.00000000E+00
  0.00000000E+00  0.00000000E+00  0.00000000E+00
  0.00000000E+00  0.00000000E+00  0.00000000E+00
  0.00000000E+00  0.00000000E+00  0.00000000E+00
  0.00000000E+00  0.00000000E+00  0.00000000E+00
  0.00000000E+00  0.00000000E+00  0.00000000E+00
  0.00000000E+00  0.00000000E+00  0.00000000E+00
  0.00000000E+00  0.00000000E+00  0.00000000E+00
  0.00000000E+00  0.00000000E+00  0.00000000E+00
  0.00000000E+00  0.00000000E+00  0.00000000E+00
  0.00000000E+00  0.00000000E+00  0.00000000E+00
  0.00000000E+00  0.00000000E+00  0.00000000E+00
  0.00000000E+00  0.00000000E+00  0.00000000E+00
  0.00000000E+00  0.00000000E+00  0.00000000E+00
  0.00000000E+00  0.00000000E+00  0.00000000E+00
  0.00000000E+00  0.00000000E+00  0.00000000E+00
  0.00000000E+00  0.00000000E+00  0.00000000E+00
  0.00000000E+00  0.00000000E+00  0.00000000E+00
  0.00000000E+00  0.00000000E+00  0.00000000E+00
  0.00000000E+00  0.00000000E+00  0.00000000E+00
  0.00000000E+00  0.00000000E+00  0.00000000E+00
  0.00000000E+00  0.00000000E+00  0.00000000E+00
  0.00000000E+00  0.00000000E+00  0.00000000E+00
  0.00000000E+00  0.00000000E+00  0.00000000E+00
  0.00000000E+00  0.00000000E+00  0.00000000E+00
  0.00000000E+00  0.00000000E+00  0.00000000E+00
  0.00000000E+00  0.00000000E+00  0.00000000E+00
  0.00000000E+00  0.00000000E+00  0.00000000E+00
