O Ce                                    
   1.00000000000000     
    20.9244995120000006    0.0000000000000000    0.0000000000000000
     0.0000000000000000   20.9244995120000006    0.0000000000000000
     0.0000000000000000    0.0000000000000000   20.9244995120000006
   O    Ce
    28    14
Direct
  0.4840613759534927  0.2766135683986850  0.4746879223703943
  0.6220743632007188  0.6387510934616160  0.4147658027761230
  0.6032773426809750  0.3136473048539665  0.4228248820416314
  0.4089836287653077  0.5443136885640862  0.5356281620010287
  0.7067993591271182  0.4672112560296280  0.4404402535762745
  0.6768533502746458  0.3602666813162228  0.5669551501590834
  0.4639996924680599  0.6688362152909113  0.3902473015308051
  0.5873959635476307  0.5999833282937103  0.2603344745586648
  0.5159570862602656  0.5734338821102075  0.4628410481596256
  0.3215611750688456  0.4024580675462415  0.5058098474381721
  0.4548758542640733  0.4032179351580366  0.2380248263170339
  0.5420243169236985  0.2805448501596082  0.2752081283371247
  0.5305736134511221  0.3916008949392776  0.3437262747709673
  0.6899161993865823  0.5821647414014860  0.5097277610651353
  0.5858363684766559  0.4647982940665695  0.1875716744192497
  0.4162297116111450  0.3332242952172194  0.3796652793646854
  0.4307911287436811  0.4467749396472218  0.4482451889408758
  0.4700886556125684  0.5269565243046340  0.3297145726705593
  0.5091865733645454  0.6810459426919804  0.5375350799574099
  0.5839164306866117  0.4320351930372047  0.4876817252764781
  0.6478333304352094  0.4121894955950161  0.2852737164764337
  0.3310362808826667  0.4712757872593978  0.3677876320658179
  0.5792245792459926  0.5384645500101928  0.5738293215705775
  0.4752316094325274  0.3840112663883913  0.5561962269245688
  0.6286198728140996  0.3875046427132386  0.6128178783953827
  0.6157021750776380  0.5181505684815454  0.3582308463166995
  0.7292363817604259  0.5584755536783226  0.3069526520139422
  0.3380379662342315  0.6022254378524092  0.4476497281459629
  0.4959153401754836  0.4865772789439347  0.5282447058438497
  0.3335774783086136  0.5005598198552342  0.4633438584791886
  0.5926448736685103  0.6292508198164831  0.5178213074126653
  0.6294241319773578  0.4126873097641260  0.3882375455446624
  0.4027944921345555  0.3474314428768664  0.4855714638507400
  0.5128943494305425  0.2868605116211590  0.3707810178030536
  0.5520864061175201  0.3796415913772933  0.2342825418553300
  0.4233730762480045  0.4369157694207725  0.3319958544959720
  0.7024231489565742  0.5681248356552652  0.4029611387035898
  0.6463293160372038  0.5197897095482679  0.2502228716694252
  0.5724459890195484  0.3277433556014518  0.5329114663026482
  0.4279790846183324  0.6408933378234619  0.4793913960537021
  0.6704932211907535  0.4733290084002229  0.5496338367160349
  0.5344889262399547  0.6021733697144904  0.3507873447660290
 
  0.00000000E+00  0.00000000E+00  0.00000000E+00
  0.00000000E+00  0.00000000E+00  0.00000000E+00
  0.00000000E+00  0.00000000E+00  0.00000000E+00
  0.00000000E+00  0.00000000E+00  0.00000000E+00
  0.00000000E+00  0.00000000E+00  0.00000000E+00
  0.00000000E+00  0.00000000E+00  0.00000000E+00
  0.00000000E+00  0.00000000E+00  0.00000000E+00
  0.00000000E+00  0.00000000E+00  0.00000000E+00
  0.00000000E+00  0.00000000E+00  0.00000000E+00
  0.00000000E+00  0.00000000E+00  0.00000000E+00
  0.00000000E+00  0.00000000E+00  0.00000000E+00
  0.00000000E+00  0.00000000E+00  0.00000000E+00
  0.00000000E+00  0.00000000E+00  0.00000000E+00
  0.00000000E+00  0.00000000E+00  0.00000000E+00
  0.00000000E+00  0.00000000E+00  0.00000000E+00
  0.00000000E+00  0.00000000E+00  0.00000000E+00
  0.00000000E+00  0.00000000E+00  0.00000000E+00
  0.00000000E+00  0.00000000E+00  0.00000000E+00
  0.00000000E+00  0.00000000E+00  0.00000000E+00
  0.00000000E+00  0.00000000E+00  0.00000000E+00
  0.00000000E+00  0.00000000E+00  0.00000000E+00
  0.00000000E+00  0.00000000E+00  0.00000000E+00
  0.00000000E+00  0.00000000E+00  0.00000000E+00
  0.00000000E+00  0.00000000E+00  0.00000000E+00
  0.00000000E+00  0.00000000E+00  0.00000000E+00
  0.00000000E+00  0.00000000E+00  0.00000000E+00
  0.00000000E+00  0.00000000E+00  0.00000000E+00
  0.00000000E+00  0.00000000E+00  0.00000000E+00
  0.00000000E+00  0.00000000E+00  0.00000000E+00
  0.00000000E+00  0.00000000E+00  0.00000000E+00
  0.00000000E+00  0.00000000E+00  0.00000000E+00
  0.00000000E+00  0.00000000E+00  0.00000000E+00
  0.00000000E+00  0.00000000E+00  0.00000000E+00
  0.00000000E+00  0.00000000E+00  0.00000000E+00
  0.00000000E+00  0.00000000E+00  0.00000000E+00
  0.00000000E+00  0.00000000E+00  0.00000000E+00
  0.00000000E+00  0.00000000E+00  0.00000000E+00
  0.00000000E+00  0.00000000E+00  0.00000000E+00
  0.00000000E+00  0.00000000E+00  0.00000000E+00
  0.00000000E+00  0.00000000E+00  0.00000000E+00
  0.00000000E+00  0.00000000E+00  0.00000000E+00
  0.00000000E+00  0.00000000E+00  0.00000000E+00
