O Ce                                    
   1.00000000000000     
    21.6439990999999985    0.0000000000000000    0.0000000000000000
     0.0000000000000000   21.6439990999999985    0.0000000000000000
     0.0000000000000000    0.0000000000000000   21.6439990999999985
   O    Ce
    29    15
Direct
  0.4303010532087466  0.5411174148848625  0.8179610481524692
  0.5230280910659842  0.5017156234946032  0.8892625288603002
  0.5718759432929833  0.6651880528201780  0.9138208222170150
  0.4656616069926839  0.8152832574920441  0.7079963714796798
  0.3652551867924896  0.8117617707852568  0.8501085956572029
  0.4522188113950994  0.7786510854953672  0.9342129279071799
  0.3371417023408390  0.5649877226940875  0.7417387505925720
  0.5296945953220973  0.8608496681439337  0.8790463344734101
  0.3160408910743385  0.6554781377889388  0.8251948477155728
  0.5171051720607052  0.6028365479610205  0.7595371428750207
  0.5923344756200395  0.9285278582618703  0.7313770870221294
  0.2230857945815286  0.6879352226526739  0.7461651191475505
  0.4780737834589441  0.6953764487792556  0.8422177130497667
  0.5652714594025576  0.7713760142408155  0.7915782937695093
  0.1700602136071440  0.8615400145998722  0.9057379262916011
  0.2760198664722777  0.8589279717797546  0.7744361941364686
  0.1193865350074661  0.8140782991650046  0.7569275919260555
  0.3550445749408787  0.4603915982521127  0.8723568128480955
  0.2841966627069895  0.7395013386219343  0.9169433645156887
  0.4338830121412532  0.8999810943832116  0.8006777949227952
  0.4601405735592132  0.4536698776254792  0.7363910459617476
  0.1203848646631881  0.7103652224137704  0.8819571311219709
  0.2355188450183306  0.5820088244928032  0.8813337584959768
  0.4033763179425448  0.6161838385576149  0.9106048676402816
  0.4173654833818802  0.6404980214421934  0.6783471179697173
  0.3384876535432635  0.8980638993356309  0.9317198663704578
  0.2077167028230818  0.7755529530123504  0.8295404556974962
  0.3021524078107050  0.7692262951456476  0.6858004943921649
  0.3902031811714678  0.7297378827705800  0.7662696829566861
  0.5066058896141800  0.5947085291991577  0.8687202454877948
  0.3244481765382440  0.6649082273781692  0.7204048639993745
  0.4529383749510152  0.4406806363094227  0.8411472370499679
  0.4924616535207847  0.7073966493964160  0.7343053336108908
  0.4302505419361156  0.8752217813471340  0.9002599324794609
  0.2691710256087422  0.8408384483702711  0.8857188066350737
  0.2125740310975498  0.7892987601385577  0.7281851724289736
  0.1119359567357047  0.8017009383854180  0.8557974143614352
  0.3317159172935856  0.5521792625638220  0.8533895596880383
  0.3739279102485129  0.8301922977890519  0.7455532057524183
  0.2169556985647413  0.6738092819869308  0.8590627121931549
  0.4410318792740424  0.5461561716565835  0.7170960043966391
  0.5474535759021194  0.7552274339884139  0.8901834959975938
  0.5365990880761718  0.8731055461611480  0.7681767597310276
  0.3825535376136585  0.7119815155585533  0.8852044138550375
 
  0.00000000E+00  0.00000000E+00  0.00000000E+00
  0.00000000E+00  0.00000000E+00  0.00000000E+00
  0.00000000E+00  0.00000000E+00  0.00000000E+00
  0.00000000E+00  0.00000000E+00  0.00000000E+00
  0.00000000E+00  0.00000000E+00  0.00000000E+00
  0.00000000E+00  0.00000000E+00  0.00000000E+00
  0.00000000E+00  0.00000000E+00  0.00000000E+00
  0.00000000E+00  0.00000000E+00  0.00000000E+00
  0.00000000E+00  0.00000000E+00  0.00000000E+00
  0.00000000E+00  0.00000000E+00  0.00000000E+00
  0.00000000E+00  0.00000000E+00  0.00000000E+00
  0.00000000E+00  0.00000000E+00  0.00000000E+00
  0.00000000E+00  0.00000000E+00  0.00000000E+00
  0.00000000E+00  0.00000000E+00  0.00000000E+00
  0.00000000E+00  0.00000000E+00  0.00000000E+00
  0.00000000E+00  0.00000000E+00  0.00000000E+00
  0.00000000E+00  0.00000000E+00  0.00000000E+00
  0.00000000E+00  0.00000000E+00  0.00000000E+00
  0.00000000E+00  0.00000000E+00  0.00000000E+00
  0.00000000E+00  0.00000000E+00  0.00000000E+00
  0.00000000E+00  0.00000000E+00  0.00000000E+00
  0.00000000E+00  0.00000000E+00  0.00000000E+00
  0.00000000E+00  0.00000000E+00  0.00000000E+00
  0.00000000E+00  0.00000000E+00  0.00000000E+00
  0.00000000E+00  0.00000000E+00  0.00000000E+00
  0.00000000E+00  0.00000000E+00  0.00000000E+00
  0.00000000E+00  0.00000000E+00  0.00000000E+00
  0.00000000E+00  0.00000000E+00  0.00000000E+00
  0.00000000E+00  0.00000000E+00  0.00000000E+00
  0.00000000E+00  0.00000000E+00  0.00000000E+00
  0.00000000E+00  0.00000000E+00  0.00000000E+00
  0.00000000E+00  0.00000000E+00  0.00000000E+00
  0.00000000E+00  0.00000000E+00  0.00000000E+00
  0.00000000E+00  0.00000000E+00  0.00000000E+00
  0.00000000E+00  0.00000000E+00  0.00000000E+00
  0.00000000E+00  0.00000000E+00  0.00000000E+00
  0.00000000E+00  0.00000000E+00  0.00000000E+00
  0.00000000E+00  0.00000000E+00  0.00000000E+00
  0.00000000E+00  0.00000000E+00  0.00000000E+00
  0.00000000E+00  0.00000000E+00  0.00000000E+00
  0.00000000E+00  0.00000000E+00  0.00000000E+00
  0.00000000E+00  0.00000000E+00  0.00000000E+00
  0.00000000E+00  0.00000000E+00  0.00000000E+00
  0.00000000E+00  0.00000000E+00  0.00000000E+00
