O Ce                                    
   1.00000000000000     
    21.6439990997000002    0.0000000000000000    0.0000000000000000
     0.0000000000000000   21.6439990997000002    0.0000000000000000
     0.0000000000000000    0.0000000000000000   21.6439990997000002
   O    Ce
    31    15
Direct
  0.8332833255365468  0.1727058817535060  0.4849411598158355
  0.4499792386818967  0.0542205041195763  0.3307079687907922
  0.5707613404352456  0.0626933857958070  0.3082971163982511
  0.5516557289916775  0.4442848486260081  0.2914765060956769
  0.5874283840775010  0.3962007748282900  0.4439143202276178
  0.5997791845550116  0.1606157244457565  0.5430028579994286
  0.7182087479196927  0.2880076466355043  0.4659658162327501
  0.6735322185711079  0.1811216814392214  0.2367390995147404
  0.5293451170334792  0.2966536923939814  0.2168791673031321
  0.7320009236153315  0.0637012556565739  0.5541373321035338
  0.7092969283867406  0.1128356497389830  0.3955695756166990
  0.4669283412981741  0.3972695505821225  0.4697816995034506
  0.6117448880771116  0.3247873372534278  0.5872100164159384
  0.6539772987604567  0.2988779987003250  0.1952518655742658
  0.7139665116928401  0.1717902241215316  0.5018886711779356
  0.4827773039731789  0.2658993432540394  0.5424465554553760
  0.5606409218288020  0.3274973376392998  0.3391176465621858
  0.4786524193064526  0.2268470399591188  0.3984163308118989
  0.8022942360583440  0.2071358579601183  0.3118974457487517
  0.4737285789108556  0.0963649434235951  0.4723344781518605
  0.5816039229937925  0.1300387449989245  0.4166071807238802
  0.4376068334126187  0.3552496835666445  0.3317942509272278
  0.5888544931245994  0.2718419496194434  0.4740603968466558
  0.4286063132929503  0.1832308600219806  0.2634815364731553
  0.5962143992081581  0.0116020714056647  0.4600464219297871
  0.5356436731144216  0.1378464890848771  0.1671812370672560
  0.7399011081535933  0.2116362375319436  0.6135198897854861
  0.5534564709550331  0.1871526684088815  0.2824283121104432
  0.6788611024302668  0.2333943848037297  0.3534752479029723
  0.6823929242666058  0.3521379639516180  0.3062776245769162
  0.8053361344451700  0.2702051468406186  0.3372011895602563
  0.5179724782926550  0.0437637012545195  0.4044068426082598
  0.5941081956148747  0.3701131882291579  0.2499067604982924
  0.6362808309084471  0.1361894136719906  0.3283438202845886
  0.5014556008101967  0.4104698037477534  0.3791401324704171
  0.6535258586350309  0.0861098756974232  0.4889607735953618
  0.4859413927885136  0.1056942809085504  0.2556982602018409
  0.4721474128857375  0.2626657760472114  0.3089662320659343
  0.6615271620505242  0.2467778279503563  0.5540802575150250
  0.5132306772095481  0.1888579452974486  0.4842068288101500
  0.5330066378412351  0.3471830521960991  0.5274875286959537
  0.7867844967816594  0.1413019810586902  0.5678924437328471
  0.7242593501942679  0.2663197394233372  0.2662269146426807
  0.5861592959221565  0.2156744979664517  0.1871327278398528
  0.7667396847893645  0.2029497031770615  0.4180926317715964
  0.6457602904713486  0.3241991911230405  0.4044668524300731
 
  0.00000000E+00  0.00000000E+00  0.00000000E+00
  0.00000000E+00  0.00000000E+00  0.00000000E+00
  0.00000000E+00  0.00000000E+00  0.00000000E+00
  0.00000000E+00  0.00000000E+00  0.00000000E+00
  0.00000000E+00  0.00000000E+00  0.00000000E+00
  0.00000000E+00  0.00000000E+00  0.00000000E+00
  0.00000000E+00  0.00000000E+00  0.00000000E+00
  0.00000000E+00  0.00000000E+00  0.00000000E+00
  0.00000000E+00  0.00000000E+00  0.00000000E+00
  0.00000000E+00  0.00000000E+00  0.00000000E+00
  0.00000000E+00  0.00000000E+00  0.00000000E+00
  0.00000000E+00  0.00000000E+00  0.00000000E+00
  0.00000000E+00  0.00000000E+00  0.00000000E+00
  0.00000000E+00  0.00000000E+00  0.00000000E+00
  0.00000000E+00  0.00000000E+00  0.00000000E+00
  0.00000000E+00  0.00000000E+00  0.00000000E+00
  0.00000000E+00  0.00000000E+00  0.00000000E+00
  0.00000000E+00  0.00000000E+00  0.00000000E+00
  0.00000000E+00  0.00000000E+00  0.00000000E+00
  0.00000000E+00  0.00000000E+00  0.00000000E+00
  0.00000000E+00  0.00000000E+00  0.00000000E+00
  0.00000000E+00  0.00000000E+00  0.00000000E+00
  0.00000000E+00  0.00000000E+00  0.00000000E+00
  0.00000000E+00  0.00000000E+00  0.00000000E+00
  0.00000000E+00  0.00000000E+00  0.00000000E+00
  0.00000000E+00  0.00000000E+00  0.00000000E+00
  0.00000000E+00  0.00000000E+00  0.00000000E+00
  0.00000000E+00  0.00000000E+00  0.00000000E+00
  0.00000000E+00  0.00000000E+00  0.00000000E+00
  0.00000000E+00  0.00000000E+00  0.00000000E+00
  0.00000000E+00  0.00000000E+00  0.00000000E+00
  0.00000000E+00  0.00000000E+00  0.00000000E+00
  0.00000000E+00  0.00000000E+00  0.00000000E+00
  0.00000000E+00  0.00000000E+00  0.00000000E+00
  0.00000000E+00  0.00000000E+00  0.00000000E+00
  0.00000000E+00  0.00000000E+00  0.00000000E+00
  0.00000000E+00  0.00000000E+00  0.00000000E+00
  0.00000000E+00  0.00000000E+00  0.00000000E+00
  0.00000000E+00  0.00000000E+00  0.00000000E+00
  0.00000000E+00  0.00000000E+00  0.00000000E+00
  0.00000000E+00  0.00000000E+00  0.00000000E+00
  0.00000000E+00  0.00000000E+00  0.00000000E+00
  0.00000000E+00  0.00000000E+00  0.00000000E+00
  0.00000000E+00  0.00000000E+00  0.00000000E+00
  0.00000000E+00  0.00000000E+00  0.00000000E+00
  0.00000000E+00  0.00000000E+00  0.00000000E+00
