O Ce                                    
   1.00000000000000     
    21.6439990997000002    0.0000000000000000    0.0000000000000000
     0.0000000000000000   21.6439990997000002    0.0000000000000000
     0.0000000000000000    0.0000000000000000   21.6439990997000002
   O    Ce
    30    15
Direct
  0.8332065307295844  0.1735176979619859  0.4838293243441804
  0.4500249730390878  0.0540964179194597  0.3306472513063754
  0.5706490296397141  0.0626689126248435  0.3082819143474544
  0.5516793141215331  0.4444004924511464  0.2920818299294894
  0.5868194382518401  0.3964867199165632  0.4442637466214728
  0.5999786498469385  0.1606310459046447  0.5431786440363995
  0.7191953228133282  0.2884245322319813  0.4648587689655917
  0.6741769385572703  0.1806254902171026  0.2369823817239093
  0.5299451725300879  0.2967171453078954  0.2171580231974681
  0.7327996501645425  0.0641567528211556  0.5530859106774404
  0.7103549024016436  0.1136474637386386  0.3946339218972508
  0.4665044593612825  0.3970217027958615  0.4699279462932032
  0.6118125482966066  0.3248790105026684  0.5874102067396878
  0.6544915301388903  0.2988017798031594  0.1962490006871729
  0.7135658557178174  0.1722498503774919  0.5014189730124604
  0.4828684285340093  0.2657989847875840  0.5424885965666990
  0.5603596116937372  0.3278055618728191  0.3392745478837729
  0.4790497101363194  0.2270690569759855  0.3983330357546648
  0.4738274627306214  0.0964732167653663  0.4721956914538594
  0.5819223880721675  0.1299156757035846  0.4167789660797653
  0.4374059771650037  0.3552044858060762  0.3317577960104908
  0.5890466451223486  0.2719731638887371  0.4744505236949456
  0.4286956840527641  0.1833081216921340  0.2636030225977700
  0.5965595499702872  0.0116218930196197  0.4601851799015030
  0.5359401453802907  0.1376691956871402  0.1674133496196340
  0.7404793648519944  0.2122944299093092  0.6127036432313655
  0.5533573381403112  0.1871728684257712  0.2823632598023702
  0.6765085828679190  0.2335337109872424  0.3542238811917229
  0.6829767783976665  0.3528626274374109  0.3070596187115343
  0.7976492886618781  0.2394285100993563  0.3240819963524870
  0.5181452245073437  0.0437386550304557  0.4044034960386532
  0.5946162645019276  0.3702977423728896  0.2504652874253261
  0.6359518273628856  0.1365846428294644  0.3282132880063015
  0.5010149857027710  0.4105292101872747  0.3792698008016304
  0.6539281633391633  0.0862225852853862  0.4889845321799690
  0.4859548226340684  0.1056655547955307  0.2555913793496574
  0.4722944647183139  0.2626870177241067  0.3088306873351680
  0.6616728215671390  0.2469781741711367  0.5542415502902885
  0.5134677454715151  0.1888639203965898  0.4841942850452368
  0.5328366125264273  0.3472934151878533  0.5277212094489411
  0.7876215576558496  0.1421783873935815  0.5664229982557185
  0.7254528768309400  0.2664202716625617  0.2668604166272361
  0.5868502958339461  0.2156179139138511  0.1875937538344651
  0.7653010695706862  0.2037799396059463  0.4168317784371748
  0.6452143679977221  0.3245399282508639  0.4044309945100587
 
  0.00000000E+00  0.00000000E+00  0.00000000E+00
  0.00000000E+00  0.00000000E+00  0.00000000E+00
  0.00000000E+00  0.00000000E+00  0.00000000E+00
  0.00000000E+00  0.00000000E+00  0.00000000E+00
  0.00000000E+00  0.00000000E+00  0.00000000E+00
  0.00000000E+00  0.00000000E+00  0.00000000E+00
  0.00000000E+00  0.00000000E+00  0.00000000E+00
  0.00000000E+00  0.00000000E+00  0.00000000E+00
  0.00000000E+00  0.00000000E+00  0.00000000E+00
  0.00000000E+00  0.00000000E+00  0.00000000E+00
  0.00000000E+00  0.00000000E+00  0.00000000E+00
  0.00000000E+00  0.00000000E+00  0.00000000E+00
  0.00000000E+00  0.00000000E+00  0.00000000E+00
  0.00000000E+00  0.00000000E+00  0.00000000E+00
  0.00000000E+00  0.00000000E+00  0.00000000E+00
  0.00000000E+00  0.00000000E+00  0.00000000E+00
  0.00000000E+00  0.00000000E+00  0.00000000E+00
  0.00000000E+00  0.00000000E+00  0.00000000E+00
  0.00000000E+00  0.00000000E+00  0.00000000E+00
  0.00000000E+00  0.00000000E+00  0.00000000E+00
  0.00000000E+00  0.00000000E+00  0.00000000E+00
  0.00000000E+00  0.00000000E+00  0.00000000E+00
  0.00000000E+00  0.00000000E+00  0.00000000E+00
  0.00000000E+00  0.00000000E+00  0.00000000E+00
  0.00000000E+00  0.00000000E+00  0.00000000E+00
  0.00000000E+00  0.00000000E+00  0.00000000E+00
  0.00000000E+00  0.00000000E+00  0.00000000E+00
  0.00000000E+00  0.00000000E+00  0.00000000E+00
  0.00000000E+00  0.00000000E+00  0.00000000E+00
  0.00000000E+00  0.00000000E+00  0.00000000E+00
  0.00000000E+00  0.00000000E+00  0.00000000E+00
  0.00000000E+00  0.00000000E+00  0.00000000E+00
  0.00000000E+00  0.00000000E+00  0.00000000E+00
  0.00000000E+00  0.00000000E+00  0.00000000E+00
  0.00000000E+00  0.00000000E+00  0.00000000E+00
  0.00000000E+00  0.00000000E+00  0.00000000E+00
  0.00000000E+00  0.00000000E+00  0.00000000E+00
  0.00000000E+00  0.00000000E+00  0.00000000E+00
  0.00000000E+00  0.00000000E+00  0.00000000E+00
  0.00000000E+00  0.00000000E+00  0.00000000E+00
  0.00000000E+00  0.00000000E+00  0.00000000E+00
  0.00000000E+00  0.00000000E+00  0.00000000E+00
  0.00000000E+00  0.00000000E+00  0.00000000E+00
  0.00000000E+00  0.00000000E+00  0.00000000E+00
  0.00000000E+00  0.00000000E+00  0.00000000E+00
