O Ce                                    
   1.00000000000000     
    21.6439990999999985    0.0000000000000000    0.0000000000000000
     0.0000000000000000   21.6439990999999985    0.0000000000000000
     0.0000000000000000    0.0000000000000000   21.6439990999999985
   O    Ce
    32    16
Direct
  0.6888760054581833  0.5287545582782821  0.5393695703784029
  0.9007797271801243  0.4313000289765253  0.8412092228675866
  0.9938484960856430  0.3536467373209166  0.6844554874227943
  0.8202890283293133  0.5348495989724126  0.5284363903600873
  0.9929060458281599  0.4905939612943213  0.7397795531639378
  0.7882552000824238  0.6611763913790905  0.5419400798138605
  0.8544360128190628  0.2774723773005511  0.5641163663929253
  0.8801389991055779  0.5911678781197813  0.7749235402291511
  0.7880564428855187  0.5716092151001747  0.4113834562847504
  0.7619463316193781  0.5693271258698014  0.7919772489994993
  0.6476481659923928  0.5625418478879257  0.8302737731547098
  0.9113250958734606  0.6842700547260746  0.5256349557833108
  0.8237319507173125  0.7366678756507236  0.6848463511982289
  0.9254661113069610  0.5421808673204829  0.4599705889926776
  0.5937193786277545  0.3940425060287207  0.5309761009110110
  0.9606838944040422  0.3804802206232261  0.5401372696390732
  0.7106500062757640  0.2982071705595643  0.4715411845786406
  0.8736639817259150  0.3437612299007358  0.7100470853296675
  0.6784799946402328  0.4384592873160706  0.3992018761185305
  0.7883684854051556  0.5433471451219029  0.9071277150484556
  0.7117827040104220  0.4121625494666424  0.5125854255192935
  0.9386911892878664  0.5158453860605667  0.6036025948261914
  0.8504879533830375  0.4003366978272257  0.5975851120573311
  0.6188807877181013  0.4769403601641654  0.6822212312195568
  0.8496045968287157  0.6191929084715289  0.6502135666180017
  0.8712737585576128  0.4713471066128140  0.7230486302814932
  0.7264861530009503  0.3631428009023910  0.6237297725496337
  0.7571084310976940  0.6832185540672979  0.8319443317892650
  0.7408827074872796  0.4897500470347418  0.6518366876951988
  0.7194034544687122  0.6130545772807054  0.6873738258964970
  0.7533548857414826  0.4478846079976643  0.7747278924098357
  0.8254800926559140  0.4177142667237909  0.4697134942770463
  0.7845958322209990  0.3389555311496950  0.5318319300669762
  0.7197815449320364  0.6053164509488880  0.8788378614759653
  0.9505405417101880  0.4024557245826025  0.7577455558324152
  0.9065333246550570  0.4624148793173988  0.5232619432752412
  0.7554548349395903  0.5792169261354206  0.5972785683726837
  0.7948743073695997  0.4044195504609396  0.6885419924919646
  0.7489291009483218  0.4899109263398486  0.4531080938091291
  0.6565284283845977  0.4412949738706093  0.5960825920245839
  0.8001655815049069  0.6550037132372336  0.7446016492287801
  0.8599250532752304  0.6106614957373346  0.4677158560994990
  0.6830473873310667  0.5226254689583444  0.7417027159256127
  0.8346535204474409  0.5016352485943402  0.8245311947436564
  0.8568067655111583  0.7100536630448517  0.5983339610783528
  0.9264448834169952  0.3266898729033309  0.6147869356774661
  0.6432495533725218  0.3645920031987724  0.4519912947838903
  0.9309748191203943  0.5502698113966932  0.6922240988687600
 
  0.00000000E+00  0.00000000E+00  0.00000000E+00
  0.00000000E+00  0.00000000E+00  0.00000000E+00
  0.00000000E+00  0.00000000E+00  0.00000000E+00
  0.00000000E+00  0.00000000E+00  0.00000000E+00
  0.00000000E+00  0.00000000E+00  0.00000000E+00
  0.00000000E+00  0.00000000E+00  0.00000000E+00
  0.00000000E+00  0.00000000E+00  0.00000000E+00
  0.00000000E+00  0.00000000E+00  0.00000000E+00
  0.00000000E+00  0.00000000E+00  0.00000000E+00
  0.00000000E+00  0.00000000E+00  0.00000000E+00
  0.00000000E+00  0.00000000E+00  0.00000000E+00
  0.00000000E+00  0.00000000E+00  0.00000000E+00
  0.00000000E+00  0.00000000E+00  0.00000000E+00
  0.00000000E+00  0.00000000E+00  0.00000000E+00
  0.00000000E+00  0.00000000E+00  0.00000000E+00
  0.00000000E+00  0.00000000E+00  0.00000000E+00
  0.00000000E+00  0.00000000E+00  0.00000000E+00
  0.00000000E+00  0.00000000E+00  0.00000000E+00
  0.00000000E+00  0.00000000E+00  0.00000000E+00
  0.00000000E+00  0.00000000E+00  0.00000000E+00
  0.00000000E+00  0.00000000E+00  0.00000000E+00
  0.00000000E+00  0.00000000E+00  0.00000000E+00
  0.00000000E+00  0.00000000E+00  0.00000000E+00
  0.00000000E+00  0.00000000E+00  0.00000000E+00
  0.00000000E+00  0.00000000E+00  0.00000000E+00
  0.00000000E+00  0.00000000E+00  0.00000000E+00
  0.00000000E+00  0.00000000E+00  0.00000000E+00
  0.00000000E+00  0.00000000E+00  0.00000000E+00
  0.00000000E+00  0.00000000E+00  0.00000000E+00
  0.00000000E+00  0.00000000E+00  0.00000000E+00
  0.00000000E+00  0.00000000E+00  0.00000000E+00
  0.00000000E+00  0.00000000E+00  0.00000000E+00
  0.00000000E+00  0.00000000E+00  0.00000000E+00
  0.00000000E+00  0.00000000E+00  0.00000000E+00
  0.00000000E+00  0.00000000E+00  0.00000000E+00
  0.00000000E+00  0.00000000E+00  0.00000000E+00
  0.00000000E+00  0.00000000E+00  0.00000000E+00
  0.00000000E+00  0.00000000E+00  0.00000000E+00
  0.00000000E+00  0.00000000E+00  0.00000000E+00
  0.00000000E+00  0.00000000E+00  0.00000000E+00
  0.00000000E+00  0.00000000E+00  0.00000000E+00
  0.00000000E+00  0.00000000E+00  0.00000000E+00
  0.00000000E+00  0.00000000E+00  0.00000000E+00
  0.00000000E+00  0.00000000E+00  0.00000000E+00
  0.00000000E+00  0.00000000E+00  0.00000000E+00
  0.00000000E+00  0.00000000E+00  0.00000000E+00
  0.00000000E+00  0.00000000E+00  0.00000000E+00
  0.00000000E+00  0.00000000E+00  0.00000000E+00
