O Ce                                    
   1.00000000000000     
    21.6439990999999985    0.0000000000000000    0.0000000000000000
     0.0000000000000000   21.6439990999999985    0.0000000000000000
     0.0000000000000000    0.0000000000000000   21.6439990999999985
   O    Ce
    31    16
Direct
  0.8359917230332244  0.1714755660208191  0.4900681969142882
  0.4455831524420074  0.0586503712872539  0.3348479873109887
  0.5697298149215926  0.0612580221352818  0.3083464181028793
  0.5511217221155243  0.4432455497120331  0.2938565495392116
  0.5872009985261900  0.3963884139138610  0.4443843130529366
  0.6004695107104840  0.1596510532024466  0.5414529951265911
  0.7188945765077077  0.2898788885585311  0.4680020223414902
  0.6752893294645690  0.1790816622094790  0.2374902936927438
  0.5278460183306393  0.2980967631565298  0.2191480161201654
  0.7319150262421777  0.0640176526532620  0.5528585752495164
  0.7093014702050405  0.1124075588141405  0.3945538812301189
  0.4671898988642316  0.3958721782576756  0.4695960800795680
  0.6113369881577583  0.3253710631761111  0.5857547567225251
  0.6540762238866843  0.3066342861543555  0.1939117498583769
  0.7154237744391571  0.1725179335561446  0.5017481401642041
  0.4830873005499753  0.2633409279515510  0.5397664011498859
  0.5606305963808363  0.3252479311838473  0.3409368982940602
  0.4618993215831642  0.2199115923248783  0.3994243364169673
  0.8051839834450415  0.2382634897272224  0.3360815074748338
  0.4624435727679066  0.1021618222719596  0.4568403517758322
  0.3048452636049243  0.1300151896859370  0.3981870698349238
  0.5814965727368351  0.1289986079865642  0.4164295368303238
  0.4383687970897440  0.3517769112143450  0.3324393582503478
  0.5880807964297022  0.2710807457147700  0.4722746786544876
  0.4226256941610098  0.1770111516895291  0.2826250551717514
  0.5934466588265466  0.0117264318575331  0.4625091940828750
  0.5237860845159944  0.1318205310389587  0.1677288550227471
  0.7397556877518994  0.2138952845863303  0.6132217334880571
  0.5518825610698228  0.1860025852943908  0.2813534857855725
  0.6777964375482777  0.2337784879653180  0.3557181310398093
  0.6826560208879597  0.3563988196268393  0.3097280484329291
  0.3891294004307010  0.1398727249379971  0.3819219269906772
  0.5234935048191256  0.0418908754175191  0.4018799681932757
  0.5978414409544571  0.3695867892423478  0.2491936924524623
  0.6383699536153105  0.1399157449250224  0.3259197518796708
  0.5030785615882978  0.4102682062218720  0.3782859129148509
  0.6573497137344932  0.0870992057433133  0.4876390703657644
  0.4893293637945627  0.1045412441625107  0.2511664287661848
  0.4772004947948196  0.2645426928002578  0.3067271104792584
  0.6640266349853888  0.2482855904014671  0.5531017182346103
  0.5175264985868124  0.1901718412153587  0.4836323046429219
  0.5335818349353914  0.3477579560036096  0.5262651437230844
  0.7885649115929325  0.1425028377014942  0.5686153484201945
  0.7310722507434421  0.2684493300670854  0.2661152130451518
  0.5891940849235507  0.2170256376156325  0.1824581989653967
  0.7689391712590671  0.2045581168420696  0.4174764374227307
  0.6480954200330886  0.3252959833572238  0.4034020087496140
 
  0.00000000E+00  0.00000000E+00  0.00000000E+00
  0.00000000E+00  0.00000000E+00  0.00000000E+00
  0.00000000E+00  0.00000000E+00  0.00000000E+00
  0.00000000E+00  0.00000000E+00  0.00000000E+00
  0.00000000E+00  0.00000000E+00  0.00000000E+00
  0.00000000E+00  0.00000000E+00  0.00000000E+00
  0.00000000E+00  0.00000000E+00  0.00000000E+00
  0.00000000E+00  0.00000000E+00  0.00000000E+00
  0.00000000E+00  0.00000000E+00  0.00000000E+00
  0.00000000E+00  0.00000000E+00  0.00000000E+00
  0.00000000E+00  0.00000000E+00  0.00000000E+00
  0.00000000E+00  0.00000000E+00  0.00000000E+00
  0.00000000E+00  0.00000000E+00  0.00000000E+00
  0.00000000E+00  0.00000000E+00  0.00000000E+00
  0.00000000E+00  0.00000000E+00  0.00000000E+00
  0.00000000E+00  0.00000000E+00  0.00000000E+00
  0.00000000E+00  0.00000000E+00  0.00000000E+00
  0.00000000E+00  0.00000000E+00  0.00000000E+00
  0.00000000E+00  0.00000000E+00  0.00000000E+00
  0.00000000E+00  0.00000000E+00  0.00000000E+00
  0.00000000E+00  0.00000000E+00  0.00000000E+00
  0.00000000E+00  0.00000000E+00  0.00000000E+00
  0.00000000E+00  0.00000000E+00  0.00000000E+00
  0.00000000E+00  0.00000000E+00  0.00000000E+00
  0.00000000E+00  0.00000000E+00  0.00000000E+00
  0.00000000E+00  0.00000000E+00  0.00000000E+00
  0.00000000E+00  0.00000000E+00  0.00000000E+00
  0.00000000E+00  0.00000000E+00  0.00000000E+00
  0.00000000E+00  0.00000000E+00  0.00000000E+00
  0.00000000E+00  0.00000000E+00  0.00000000E+00
  0.00000000E+00  0.00000000E+00  0.00000000E+00
  0.00000000E+00  0.00000000E+00  0.00000000E+00
  0.00000000E+00  0.00000000E+00  0.00000000E+00
  0.00000000E+00  0.00000000E+00  0.00000000E+00
  0.00000000E+00  0.00000000E+00  0.00000000E+00
  0.00000000E+00  0.00000000E+00  0.00000000E+00
  0.00000000E+00  0.00000000E+00  0.00000000E+00
  0.00000000E+00  0.00000000E+00  0.00000000E+00
  0.00000000E+00  0.00000000E+00  0.00000000E+00
  0.00000000E+00  0.00000000E+00  0.00000000E+00
  0.00000000E+00  0.00000000E+00  0.00000000E+00
  0.00000000E+00  0.00000000E+00  0.00000000E+00
  0.00000000E+00  0.00000000E+00  0.00000000E+00
  0.00000000E+00  0.00000000E+00  0.00000000E+00
  0.00000000E+00  0.00000000E+00  0.00000000E+00
  0.00000000E+00  0.00000000E+00  0.00000000E+00
  0.00000000E+00  0.00000000E+00  0.00000000E+00
