O Ce                                    
   1.00000000000000     
    21.6439990997000002    0.0000000000000000    0.0000000000000000
     0.0000000000000000   21.6439990997000002    0.0000000000000000
     0.0000000000000000    0.0000000000000000   21.6439990997000002
   O    Ce
    32    16
Direct
  0.6877638976273388  0.5292684578758032  0.5391096892366957
  0.9040275836457753  0.4355162890092485  0.8399967277045880
  0.9952709800187748  0.3589743868875135  0.6808686308609622
  0.8146887294362133  0.5362590981226448  0.5215500241624900
  0.9939628944278812  0.4976014576183896  0.7370350119530902
  0.8253149294653601  0.6648680275117419  0.5369043523021113
  0.8548593386686792  0.2783558331172227  0.5645453428161342
  0.8755686065845143  0.5931352665820208  0.7770236712735646
  0.7800503351408813  0.5684115502514639  0.4047544077616165
  0.7577005957617483  0.5678056179184465  0.7924710014806673
  0.6441102681221762  0.5562327704035528  0.8306469920026818
  0.8305348986574409  0.7321627748963746  0.6933206544458504
  0.9236239869032367  0.5461650365893529  0.4566282793770297
  0.5921060032347903  0.3889036443190872  0.5340810380843685
  0.9593759807769413  0.3835739183238667  0.5383815250486547
  0.7095111202452630  0.2952107125523072  0.4738499830167465
  0.8761069198883635  0.3465801624279239  0.7087675970548257
  0.6730145878898073  0.4336618907008769  0.4004902004749651
  0.7858739415315059  0.5407505134945264  0.9071514967086585
  0.7088234062383406  0.4095972759300457  0.5132420431456757
  0.9290512285332153  0.5166227240316843  0.6026690065253603
  0.8492009785672311  0.4012072240952274  0.5960115564915537
  0.6173773000604260  0.4725887865807199  0.6824302133097246
  0.8377171276078021  0.6123511121465501  0.6548991193454843
  0.8713151824318743  0.4738282895889209  0.7233123868120256
  0.7268623654575790  0.3634933977122761  0.6245559651666799
  0.7487878677878477  0.6800778977084709  0.8356879856038042
  0.7401657334180562  0.4913221122277647  0.6500341054010610
  0.7132237452193423  0.6118287056879474  0.6850883619527981
  0.7527927730759087  0.4475431678431665  0.7728779256894890
  0.8218888064428937  0.4182060326434467  0.4691990664584503
  0.9568910670209275  0.6560681694612260  0.6488195256883783
  0.7839274668666035  0.3382514329892122  0.5330942719957655
  0.7148129369750700  0.6000447632969167  0.8810437714203527
  0.9524482370922002  0.4095406143196034  0.7547640314658971
  0.9035793412519967  0.4639505955253976  0.5233893233108725
  0.7552500987255006  0.5792977276973306  0.5975905727721109
  0.7967298062954575  0.4067310191842007  0.6882691402280687
  0.7428294191051038  0.4863828747712727  0.4526339994625971
  0.6555722378576364  0.4391719368090011  0.5970987352596029
  0.7943072892959445  0.6541112136788008  0.7484144118726731
  0.8526565536096133  0.6064369842256304  0.4557385373046385
  0.6808476271156545  0.5207967469262803  0.7413854435206571
  0.8350588319898105  0.5031098090322019  0.8232137212830768
  0.8804482465851621  0.6990754357934931  0.6178214515592106
  0.9274564865597932  0.3291352170066059  0.6143807660193041
  0.6401307016082441  0.3589409649926500  0.4547978961263327
  0.9326820720857186  0.5598685502994459  0.6911443464829291
 
  0.00000000E+00  0.00000000E+00  0.00000000E+00
  0.00000000E+00  0.00000000E+00  0.00000000E+00
  0.00000000E+00  0.00000000E+00  0.00000000E+00
  0.00000000E+00  0.00000000E+00  0.00000000E+00
  0.00000000E+00  0.00000000E+00  0.00000000E+00
  0.00000000E+00  0.00000000E+00  0.00000000E+00
  0.00000000E+00  0.00000000E+00  0.00000000E+00
  0.00000000E+00  0.00000000E+00  0.00000000E+00
  0.00000000E+00  0.00000000E+00  0.00000000E+00
  0.00000000E+00  0.00000000E+00  0.00000000E+00
  0.00000000E+00  0.00000000E+00  0.00000000E+00
  0.00000000E+00  0.00000000E+00  0.00000000E+00
  0.00000000E+00  0.00000000E+00  0.00000000E+00
  0.00000000E+00  0.00000000E+00  0.00000000E+00
  0.00000000E+00  0.00000000E+00  0.00000000E+00
  0.00000000E+00  0.00000000E+00  0.00000000E+00
  0.00000000E+00  0.00000000E+00  0.00000000E+00
  0.00000000E+00  0.00000000E+00  0.00000000E+00
  0.00000000E+00  0.00000000E+00  0.00000000E+00
  0.00000000E+00  0.00000000E+00  0.00000000E+00
  0.00000000E+00  0.00000000E+00  0.00000000E+00
  0.00000000E+00  0.00000000E+00  0.00000000E+00
  0.00000000E+00  0.00000000E+00  0.00000000E+00
  0.00000000E+00  0.00000000E+00  0.00000000E+00
  0.00000000E+00  0.00000000E+00  0.00000000E+00
  0.00000000E+00  0.00000000E+00  0.00000000E+00
  0.00000000E+00  0.00000000E+00  0.00000000E+00
  0.00000000E+00  0.00000000E+00  0.00000000E+00
  0.00000000E+00  0.00000000E+00  0.00000000E+00
  0.00000000E+00  0.00000000E+00  0.00000000E+00
  0.00000000E+00  0.00000000E+00  0.00000000E+00
  0.00000000E+00  0.00000000E+00  0.00000000E+00
  0.00000000E+00  0.00000000E+00  0.00000000E+00
  0.00000000E+00  0.00000000E+00  0.00000000E+00
  0.00000000E+00  0.00000000E+00  0.00000000E+00
  0.00000000E+00  0.00000000E+00  0.00000000E+00
  0.00000000E+00  0.00000000E+00  0.00000000E+00
  0.00000000E+00  0.00000000E+00  0.00000000E+00
  0.00000000E+00  0.00000000E+00  0.00000000E+00
  0.00000000E+00  0.00000000E+00  0.00000000E+00
  0.00000000E+00  0.00000000E+00  0.00000000E+00
  0.00000000E+00  0.00000000E+00  0.00000000E+00
  0.00000000E+00  0.00000000E+00  0.00000000E+00
  0.00000000E+00  0.00000000E+00  0.00000000E+00
  0.00000000E+00  0.00000000E+00  0.00000000E+00
  0.00000000E+00  0.00000000E+00  0.00000000E+00
  0.00000000E+00  0.00000000E+00  0.00000000E+00
  0.00000000E+00  0.00000000E+00  0.00000000E+00
