O Ce                                    
   1.00000000000000     
    21.6439990999999985    0.0000000000000000    0.0000000000000000
     0.0000000000000000   21.6439990999999985    0.0000000000000000
     0.0000000000000000    0.0000000000000000   21.6439990999999985
   O    Ce
    33    16
Direct
  0.6859001668091995  0.5274795931178379  0.5378320014259781
  0.9057845213925529  0.4355525010900099  0.8401785701607808
  0.9955568604589130  0.3605230131652069  0.6785492614032879
  0.8159591027761233  0.5336427099956409  0.5263452312593844
  0.9964770057978775  0.4938564303060627  0.7350894730279922
  0.7975937457325960  0.6591735251577492  0.5460166364654991
  0.8554177061843203  0.2774397902788356  0.5647994238858368
  0.8780702981809829  0.5918275338904162  0.7777716629626802
  0.7835108971007146  0.5727826438142425  0.4098835368066845
  0.7589669879198420  0.5689096941307947  0.7912439573933790
  0.6451012310283715  0.5592056358650669  0.8300555500542884
  0.9151344638417817  0.6754170549327491  0.5118586065050412
  0.8306462373124318  0.7285792668819809  0.6872787709739268
  0.9229030885108206  0.5417196956341062  0.4582836307567382
  0.5924284601078368  0.3905626957991475  0.5310111079427116
  0.9613341594132473  0.3818540355860108  0.5407964400711646
  0.7102460072970561  0.2969269187324305  0.4726782575946243
  0.8772254821082947  0.3458965006022980  0.7091208972906580
  0.6762502338845516  0.4372276448008864  0.4000495379828340
  0.7873642867158938  0.5432812909910760  0.9058887619425106
  0.7100003721425218  0.4106918201131530  0.5128933629596717
  0.9371659593207533  0.5145556596605477  0.6017783740039081
  0.8495438975286820  0.4003672985297822  0.5962185239444903
  0.6168770216226932  0.4734915997204591  0.6816490346119398
  0.8383735575329061  0.6059243831821433  0.6546592491685881
  0.8722933322670970  0.4734817195169157  0.7235898199432230
  0.7276784675300905  0.3633493633978908  0.6241096569186405
  0.7505259267843279  0.6823145759084965  0.8329852393158630
  0.7386454747669717  0.4901028285379577  0.6510417504680219
  0.7119403907296016  0.6119943886172983  0.6873422339587368
  0.7541005523092447  0.4481149154440729  0.7734075116322534
  0.8236051237519707  0.4168781894393574  0.4701319260248684
  0.9551277588807733  0.6516097123977618  0.6509603929386268
  0.7824034368467289  0.3384540489499626  0.5328531739371807
  0.7162452760554818  0.6039687970040399  0.8788905703756015
  0.9512853244162781  0.4088048773359473  0.7562137758663533
  0.9024301568409970  0.4641049720200843  0.5232812102217690
  0.7520182907371226  0.5813512105345545  0.5973587568987054
  0.7962034837265007  0.4080247173538232  0.6880019657681891
  0.7449803702521404  0.4898065401604246  0.4544032540324675
  0.6550226052358455  0.4400999915545093  0.5963780764623945
  0.7959846300250529  0.6548944059913510  0.7449145153801059
  0.8543499132494822  0.6136136034854933  0.4648176231019341
  0.6806246520238726  0.5221563302921951  0.7410604120268358
  0.8345802891023737  0.5045681195515204  0.8235213712424313
  0.8781975684675744  0.6935211357788584  0.6071468311846199
  0.9255375141992452  0.3267032565196001  0.6149799485073290
  0.6415102008734480  0.3624921035620495  0.4522458331387101
  0.9323123452322897  0.5611364849599253  0.6914770721127794
 
  0.00000000E+00  0.00000000E+00  0.00000000E+00
  0.00000000E+00  0.00000000E+00  0.00000000E+00
  0.00000000E+00  0.00000000E+00  0.00000000E+00
  0.00000000E+00  0.00000000E+00  0.00000000E+00
  0.00000000E+00  0.00000000E+00  0.00000000E+00
  0.00000000E+00  0.00000000E+00  0.00000000E+00
  0.00000000E+00  0.00000000E+00  0.00000000E+00
  0.00000000E+00  0.00000000E+00  0.00000000E+00
  0.00000000E+00  0.00000000E+00  0.00000000E+00
  0.00000000E+00  0.00000000E+00  0.00000000E+00
  0.00000000E+00  0.00000000E+00  0.00000000E+00
  0.00000000E+00  0.00000000E+00  0.00000000E+00
  0.00000000E+00  0.00000000E+00  0.00000000E+00
  0.00000000E+00  0.00000000E+00  0.00000000E+00
  0.00000000E+00  0.00000000E+00  0.00000000E+00
  0.00000000E+00  0.00000000E+00  0.00000000E+00
  0.00000000E+00  0.00000000E+00  0.00000000E+00
  0.00000000E+00  0.00000000E+00  0.00000000E+00
  0.00000000E+00  0.00000000E+00  0.00000000E+00
  0.00000000E+00  0.00000000E+00  0.00000000E+00
  0.00000000E+00  0.00000000E+00  0.00000000E+00
  0.00000000E+00  0.00000000E+00  0.00000000E+00
  0.00000000E+00  0.00000000E+00  0.00000000E+00
  0.00000000E+00  0.00000000E+00  0.00000000E+00
  0.00000000E+00  0.00000000E+00  0.00000000E+00
  0.00000000E+00  0.00000000E+00  0.00000000E+00
  0.00000000E+00  0.00000000E+00  0.00000000E+00
  0.00000000E+00  0.00000000E+00  0.00000000E+00
  0.00000000E+00  0.00000000E+00  0.00000000E+00
  0.00000000E+00  0.00000000E+00  0.00000000E+00
  0.00000000E+00  0.00000000E+00  0.00000000E+00
  0.00000000E+00  0.00000000E+00  0.00000000E+00
  0.00000000E+00  0.00000000E+00  0.00000000E+00
  0.00000000E+00  0.00000000E+00  0.00000000E+00
  0.00000000E+00  0.00000000E+00  0.00000000E+00
  0.00000000E+00  0.00000000E+00  0.00000000E+00
  0.00000000E+00  0.00000000E+00  0.00000000E+00
  0.00000000E+00  0.00000000E+00  0.00000000E+00
  0.00000000E+00  0.00000000E+00  0.00000000E+00
  0.00000000E+00  0.00000000E+00  0.00000000E+00
  0.00000000E+00  0.00000000E+00  0.00000000E+00
  0.00000000E+00  0.00000000E+00  0.00000000E+00
  0.00000000E+00  0.00000000E+00  0.00000000E+00
  0.00000000E+00  0.00000000E+00  0.00000000E+00
  0.00000000E+00  0.00000000E+00  0.00000000E+00
  0.00000000E+00  0.00000000E+00  0.00000000E+00
  0.00000000E+00  0.00000000E+00  0.00000000E+00
  0.00000000E+00  0.00000000E+00  0.00000000E+00
  0.00000000E+00  0.00000000E+00  0.00000000E+00
