O Ce                                    
   1.00000000000000     
    21.6439990997000002    0.0000000000000000    0.0000000000000000
     0.0000000000000000   21.6439990997000002    0.0000000000000000
     0.0000000000000000    0.0000000000000000   21.6439990997000002
   O    Ce
    34    17
Direct
  0.3647333057893077  0.3416340569120547  0.2259507881676312
  0.5752220484758862  0.6114963040938731  0.0544145387636783
  0.3301959914120887  0.4768370379432534  0.1405373561386321
  0.5392015758827128  0.1766151830907434  0.0275426956865228
  0.4134171955135197  0.1649971540761569  0.2712455611528690
  0.5520721702150992  0.1685132081917237  0.1968399947843282
  0.3017487898350892  0.2784025568927095  0.1368768936472355
  0.4577023489485714  0.2743221893612458  0.0481405617073665
  0.3946835980933964  0.1880929165147747  0.1244911433581658
  0.4414062111445005  0.6093609752376942  0.1438572945274562
  0.6094237422453701  0.2446910215963874  0.2720675473873820
  0.4000906760523567  0.2049980776231505  0.9538073455198681
  0.6760973318376778  0.3127305919873770  0.1950475425510163
  0.7021230746702504  0.1665885027846105  0.2686604137103360
  0.5299968787096749  0.5276422415444804  0.1316848763213161
  0.4610190033831619  0.4847660983334626  0.0377240411375869
  0.6784492894247589  0.3115373172320777  0.0385182824442440
  0.3505007451679316  0.3525402346125420  0.0408472087628206
  0.5670306461487281  0.3838174066973805  0.1971185565301197
  0.6834338487739678  0.1738321898643941  0.0975279069217336
  0.6346384657562765  0.4455099410931282  0.2860462204158588
  0.5902915921592317  0.2444009596488905  0.9369825010867601
  0.5893152679935181  0.2601972226758789  0.1104360145068774
  0.5666701877565919  0.1753926355345689  0.3606113670287067
  0.5204729321857092  0.3233361259130623  0.3023206190656619
  0.4700011510030128  0.3361144074587774  0.9389178471621896
  0.4766396251113418  0.4722311887954522  0.2278046466316616
  0.6761055680418335  0.2955278861721327  0.3595300112159172
  0.5901395757576360  0.5943788527266807  0.2130116366624117
  0.5562612191350362  0.3939270132623559  0.0454424083306516
  0.4641709857596243  0.2658541896501543  0.1989610454952010
  0.6373535986235327  0.4648134436210208  0.1216143201521528
  0.4292666358635770  0.3979676798749747  0.1314908471799747
  0.4024586309125804  0.2209667051141412  0.3085911612909089
  0.5866725221575497  0.4925109982503497  0.2118854092479849
  0.4998721241400533  0.2039898859621313  0.1161037823637877
  0.3635533487036468  0.2380638993285251  0.2083661529423727
  0.5380969524881665  0.6313566964711629  0.1386241179676065
  0.6619620428899523  0.2010000645579356  0.3493500378349655
  0.6271928452801108  0.3472805975163016  0.2833643493536874
  0.5112130769088999  0.2151142873616139  0.2873112918415899
  0.3252403687502812  0.3802682907372769  0.1353757491597293
  0.5711997435399203  0.5030692694098293  0.0403462588870669
  0.6552788272989348  0.2071733026799134  0.1852245028912765
  0.6380544972475679  0.2229484880801365  0.0210539476493299
  0.4274019135911887  0.5102341418765117  0.1361530313934524
  0.4910427106191512  0.2378057333893025  0.9490430046594294
  0.4556199209508363  0.3808717467390095  0.0244259709836411
  0.3528906023055746  0.2441376342693749  0.0386934559776322
  0.6311863042659912  0.3606494083776913  0.1106460083048582
  0.4674808798142691  0.3713731502005878  0.2287169308367418
 
  0.00000000E+00  0.00000000E+00  0.00000000E+00
  0.00000000E+00  0.00000000E+00  0.00000000E+00
  0.00000000E+00  0.00000000E+00  0.00000000E+00
  0.00000000E+00  0.00000000E+00  0.00000000E+00
  0.00000000E+00  0.00000000E+00  0.00000000E+00
  0.00000000E+00  0.00000000E+00  0.00000000E+00
  0.00000000E+00  0.00000000E+00  0.00000000E+00
  0.00000000E+00  0.00000000E+00  0.00000000E+00
  0.00000000E+00  0.00000000E+00  0.00000000E+00
  0.00000000E+00  0.00000000E+00  0.00000000E+00
  0.00000000E+00  0.00000000E+00  0.00000000E+00
  0.00000000E+00  0.00000000E+00  0.00000000E+00
  0.00000000E+00  0.00000000E+00  0.00000000E+00
  0.00000000E+00  0.00000000E+00  0.00000000E+00
  0.00000000E+00  0.00000000E+00  0.00000000E+00
  0.00000000E+00  0.00000000E+00  0.00000000E+00
  0.00000000E+00  0.00000000E+00  0.00000000E+00
  0.00000000E+00  0.00000000E+00  0.00000000E+00
  0.00000000E+00  0.00000000E+00  0.00000000E+00
  0.00000000E+00  0.00000000E+00  0.00000000E+00
  0.00000000E+00  0.00000000E+00  0.00000000E+00
  0.00000000E+00  0.00000000E+00  0.00000000E+00
  0.00000000E+00  0.00000000E+00  0.00000000E+00
  0.00000000E+00  0.00000000E+00  0.00000000E+00
  0.00000000E+00  0.00000000E+00  0.00000000E+00
  0.00000000E+00  0.00000000E+00  0.00000000E+00
  0.00000000E+00  0.00000000E+00  0.00000000E+00
  0.00000000E+00  0.00000000E+00  0.00000000E+00
  0.00000000E+00  0.00000000E+00  0.00000000E+00
  0.00000000E+00  0.00000000E+00  0.00000000E+00
  0.00000000E+00  0.00000000E+00  0.00000000E+00
  0.00000000E+00  0.00000000E+00  0.00000000E+00
  0.00000000E+00  0.00000000E+00  0.00000000E+00
  0.00000000E+00  0.00000000E+00  0.00000000E+00
  0.00000000E+00  0.00000000E+00  0.00000000E+00
  0.00000000E+00  0.00000000E+00  0.00000000E+00
  0.00000000E+00  0.00000000E+00  0.00000000E+00
  0.00000000E+00  0.00000000E+00  0.00000000E+00
  0.00000000E+00  0.00000000E+00  0.00000000E+00
  0.00000000E+00  0.00000000E+00  0.00000000E+00
  0.00000000E+00  0.00000000E+00  0.00000000E+00
  0.00000000E+00  0.00000000E+00  0.00000000E+00
  0.00000000E+00  0.00000000E+00  0.00000000E+00
  0.00000000E+00  0.00000000E+00  0.00000000E+00
  0.00000000E+00  0.00000000E+00  0.00000000E+00
  0.00000000E+00  0.00000000E+00  0.00000000E+00
  0.00000000E+00  0.00000000E+00  0.00000000E+00
  0.00000000E+00  0.00000000E+00  0.00000000E+00
  0.00000000E+00  0.00000000E+00  0.00000000E+00
  0.00000000E+00  0.00000000E+00  0.00000000E+00
  0.00000000E+00  0.00000000E+00  0.00000000E+00
