O Ce                                    
   1.00000000000000     
    21.6439990999999985    0.0000000000000000    0.0000000000000000
     0.0000000000000000   21.6439990999999985    0.0000000000000000
     0.0000000000000000    0.0000000000000000   21.6439990999999985
   O    Ce
    33    17
Direct
  0.3650703592394647  0.3411611607966598  0.2284861718996439
  0.5749747048662659  0.6114212485432633  0.0544341733937168
  0.3303392277392221  0.4761755169695424  0.1420589987843623
  0.5390518981403534  0.1762646786365846  0.0273095748382154
  0.4102238846636576  0.1950016326547561  0.2857885510532903
  0.5511211347742007  0.1677460236917150  0.1977988279731411
  0.3027450428142974  0.2774508743391240  0.1388477870212698
  0.4572194878529850  0.2736272714833439  0.0484670137343192
  0.3953639133592189  0.1863719198026899  0.1257239235656900
  0.4412279187572078  0.6091413928542798  0.1444896275329765
  0.6093574165340052  0.2446391980993175  0.2720993491395622
  0.3995655363622636  0.2047141338778884  0.9546262766137034
  0.6757408836546993  0.3123290460292439  0.1954576373460437
  0.7014800250278014  0.1660367186326110  0.2691901084270476
  0.5297859978814261  0.5274785817613701  0.1316548105607786
  0.4604825858234711  0.4842335143583110  0.0379930664619585
  0.6782434292526952  0.3112074764035417  0.0388489530543982
  0.3501911163529103  0.3516303821723898  0.0422811153041532
  0.5671530998928980  0.3836901779021494  0.1979488331426688
  0.6832929722112712  0.1733718876803479  0.0975761822727197
  0.6339138845591513  0.4455164473056725  0.2866157906840186
  0.5900058601060230  0.2438812868790039  0.9371287187860224
  0.5894496077271476  0.2594044595751406  0.1108482422967343
  0.5664284573477745  0.1754470950847325  0.3612544878856193
  0.5197037236479973  0.3224165883917440  0.3033545435148098
  0.4699188018117572  0.3360204969501012  0.9396251139599885
  0.4768825975458631  0.4723564602822586  0.2279998261640245
  0.6753148902060797  0.2954891013103390  0.3600834623427714
  0.5890756294532975  0.5944195805709328  0.2136380423804765
  0.5555481715949470  0.3934085045951607  0.0461891746495324
  0.4651808107148026  0.2668813835903430  0.1981766040647710
  0.6372055230394896  0.4643483412312316  0.1211719342341706
  0.4291414090140988  0.3975306704240326  0.1323940408799470
  0.5867125623221249  0.4923278115732568  0.2119532492566229
  0.4997984709973649  0.2036756978389493  0.1161617457006840
  0.3645397279653810  0.2369591318560556  0.2107452191993908
  0.5377149722379773  0.6313041583064528  0.1387636993893652
  0.6611122640332479  0.2007202552433912  0.3499034823203012
  0.6269364888318032  0.3471161235510494  0.2839729096540775
  0.5108303328577986  0.2153702583866275  0.2867005289852069
  0.3254013463665135  0.3794842650818609  0.1371044761414497
  0.5704661536327511  0.5027710915777305  0.0402275362314009
  0.6552239038428409  0.2068191902571144  0.1855413318293854
  0.6379800149608871  0.2224882163155102  0.0211076217784432
  0.4272877744966316  0.5098518850944531  0.1367885459607572
  0.4905467178317435  0.2374879736631105  0.9494915933113663
  0.4547850977462692  0.3802998160135074  0.0250880791541703
  0.3529007273091892  0.2427688961011064  0.0404594026727563
  0.6308844540344192  0.3602704239477617  0.1108308757356935
  0.4675473409465490  0.3713503729410944  0.2291545144140126
 
  0.00000000E+00  0.00000000E+00  0.00000000E+00
  0.00000000E+00  0.00000000E+00  0.00000000E+00
  0.00000000E+00  0.00000000E+00  0.00000000E+00
  0.00000000E+00  0.00000000E+00  0.00000000E+00
  0.00000000E+00  0.00000000E+00  0.00000000E+00
  0.00000000E+00  0.00000000E+00  0.00000000E+00
  0.00000000E+00  0.00000000E+00  0.00000000E+00
  0.00000000E+00  0.00000000E+00  0.00000000E+00
  0.00000000E+00  0.00000000E+00  0.00000000E+00
  0.00000000E+00  0.00000000E+00  0.00000000E+00
  0.00000000E+00  0.00000000E+00  0.00000000E+00
  0.00000000E+00  0.00000000E+00  0.00000000E+00
  0.00000000E+00  0.00000000E+00  0.00000000E+00
  0.00000000E+00  0.00000000E+00  0.00000000E+00
  0.00000000E+00  0.00000000E+00  0.00000000E+00
  0.00000000E+00  0.00000000E+00  0.00000000E+00
  0.00000000E+00  0.00000000E+00  0.00000000E+00
  0.00000000E+00  0.00000000E+00  0.00000000E+00
  0.00000000E+00  0.00000000E+00  0.00000000E+00
  0.00000000E+00  0.00000000E+00  0.00000000E+00
  0.00000000E+00  0.00000000E+00  0.00000000E+00
  0.00000000E+00  0.00000000E+00  0.00000000E+00
  0.00000000E+00  0.00000000E+00  0.00000000E+00
  0.00000000E+00  0.00000000E+00  0.00000000E+00
  0.00000000E+00  0.00000000E+00  0.00000000E+00
  0.00000000E+00  0.00000000E+00  0.00000000E+00
  0.00000000E+00  0.00000000E+00  0.00000000E+00
  0.00000000E+00  0.00000000E+00  0.00000000E+00
  0.00000000E+00  0.00000000E+00  0.00000000E+00
  0.00000000E+00  0.00000000E+00  0.00000000E+00
  0.00000000E+00  0.00000000E+00  0.00000000E+00
  0.00000000E+00  0.00000000E+00  0.00000000E+00
  0.00000000E+00  0.00000000E+00  0.00000000E+00
  0.00000000E+00  0.00000000E+00  0.00000000E+00
  0.00000000E+00  0.00000000E+00  0.00000000E+00
  0.00000000E+00  0.00000000E+00  0.00000000E+00
  0.00000000E+00  0.00000000E+00  0.00000000E+00
  0.00000000E+00  0.00000000E+00  0.00000000E+00
  0.00000000E+00  0.00000000E+00  0.00000000E+00
  0.00000000E+00  0.00000000E+00  0.00000000E+00
  0.00000000E+00  0.00000000E+00  0.00000000E+00
  0.00000000E+00  0.00000000E+00  0.00000000E+00
  0.00000000E+00  0.00000000E+00  0.00000000E+00
  0.00000000E+00  0.00000000E+00  0.00000000E+00
  0.00000000E+00  0.00000000E+00  0.00000000E+00
  0.00000000E+00  0.00000000E+00  0.00000000E+00
  0.00000000E+00  0.00000000E+00  0.00000000E+00
  0.00000000E+00  0.00000000E+00  0.00000000E+00
  0.00000000E+00  0.00000000E+00  0.00000000E+00
  0.00000000E+00  0.00000000E+00  0.00000000E+00
