O Ce                                    
   1.00000000000000     
    21.6439990997000002    0.0000000000000000    0.0000000000000000
     0.0000000000000000   21.6439990997000002    0.0000000000000000
     0.0000000000000000    0.0000000000000000   21.6439990997000002
   O    Ce
    35    17
Direct
  0.3650701455688506  0.3418406146417952  0.2260607484565167
  0.5749002134323934  0.6119544977441146  0.0533323098644609
  0.3303831110364701  0.4768454129594548  0.1402455471167121
  0.5394888944391719  0.1773212495384762  0.0277002517197888
  0.4139376683741922  0.1650323996147584  0.2707894021469637
  0.5521868236494352  0.1687100041549690  0.1969628353045488
  0.3017160153854384  0.2782621706911433  0.1373834233176629
  0.4574591372927271  0.2742620761812774  0.0480481986734343
  0.3948246668948435  0.1883539330887360  0.1245798702104597
  0.4411309104963142  0.6101051999622281  0.1421473572210183
  0.6096501380974302  0.2446712009072135  0.2725540899211791
  0.4002988141251304  0.2048261629322245  0.9540238209605548
  0.6758186433039622  0.3122718658748497  0.1954279747054159
  0.7020059594752022  0.1664400874744139  0.2692652279786936
  0.5297589819001262  0.5282281906742101  0.1311935652023420
  0.4606888170170450  0.4845161873380584  0.0373826655236223
  0.6784842912426440  0.3128095906766740  0.0391494186021178
  0.3506466725966564  0.3523178592413481  0.0409878691137688
  0.5687879412867136  0.3858798585096077  0.1993044584311469
  0.6830690830415554  0.1744080734298936  0.0975031815645131
  0.6654128182348722  0.4480804561785028  0.2715191098974869
  0.5904897370106923  0.2449335401480069  0.9371781104752093
  0.5891607201587017  0.2608503574923263  0.1110387696737008
  0.5666054511199409  0.1753566832698166  0.3611263490527265
  0.5204480715698560  0.3228069600624622  0.3022327275719492
  0.4703152294179253  0.3361755830426317  0.9389769548794008
  0.4754411058681876  0.4727403958807064  0.2266437678042798
  0.6761592301844355  0.2960646893123333  0.3591229841894942
  0.5901057575140333  0.5949468428335474  0.2120911652131085
  0.5560528670906183  0.3941252820394979  0.0459909066235756
  0.4643790763344267  0.2665769377802902  0.1987874061552410
  0.6370522998641784  0.4656599821632602  0.1205234264794269
  0.4295498264347342  0.3977293116740622  0.1314867621393055
  0.4025510232996178  0.2204521358101834  0.3086817208260340
  0.6091201105840990  0.4514430692587935  0.3096743419778187
  0.5870454780147966  0.4946964612952589  0.2115032113062840
  0.4999770638429757  0.2043407935107071  0.1163427944698374
  0.3639950251347525  0.2384250016020623  0.2085272417082022
  0.5370813989128438  0.6319067454052073  0.1370697450682345
  0.6617499636663664  0.2006494314482224  0.3494039154929951
  0.6279495977321580  0.3471050214948723  0.2844417900879367
  0.5112256458677146  0.2154432325553424  0.2876829207571497
  0.3253360176425347  0.3802200979337612  0.1355609828382627
  0.5712559251117757  0.5030174262789879  0.0398722562927852
  0.6548952533618559  0.2072736543874035  0.1853567660014523
  0.6380592853195631  0.2240907259817845  0.0212842441396275
  0.4272947477566900  0.5099863320322471  0.1354948992478712
  0.4910565895335242  0.2379252612762905  0.9491874251365437
  0.4555089399479388  0.3807671547174487  0.0245956179599259
  0.3530829933048751  0.2438328003871998  0.0389901249349015
  0.6314976871375360  0.3614873852728556  0.1114873747610907
  0.4680448523749258  0.3722302832312546  0.2290434785668809
 
  0.00000000E+00  0.00000000E+00  0.00000000E+00
  0.00000000E+00  0.00000000E+00  0.00000000E+00
  0.00000000E+00  0.00000000E+00  0.00000000E+00
  0.00000000E+00  0.00000000E+00  0.00000000E+00
  0.00000000E+00  0.00000000E+00  0.00000000E+00
  0.00000000E+00  0.00000000E+00  0.00000000E+00
  0.00000000E+00  0.00000000E+00  0.00000000E+00
  0.00000000E+00  0.00000000E+00  0.00000000E+00
  0.00000000E+00  0.00000000E+00  0.00000000E+00
  0.00000000E+00  0.00000000E+00  0.00000000E+00
  0.00000000E+00  0.00000000E+00  0.00000000E+00
  0.00000000E+00  0.00000000E+00  0.00000000E+00
  0.00000000E+00  0.00000000E+00  0.00000000E+00
  0.00000000E+00  0.00000000E+00  0.00000000E+00
  0.00000000E+00  0.00000000E+00  0.00000000E+00
  0.00000000E+00  0.00000000E+00  0.00000000E+00
  0.00000000E+00  0.00000000E+00  0.00000000E+00
  0.00000000E+00  0.00000000E+00  0.00000000E+00
  0.00000000E+00  0.00000000E+00  0.00000000E+00
  0.00000000E+00  0.00000000E+00  0.00000000E+00
  0.00000000E+00  0.00000000E+00  0.00000000E+00
  0.00000000E+00  0.00000000E+00  0.00000000E+00
  0.00000000E+00  0.00000000E+00  0.00000000E+00
  0.00000000E+00  0.00000000E+00  0.00000000E+00
  0.00000000E+00  0.00000000E+00  0.00000000E+00
  0.00000000E+00  0.00000000E+00  0.00000000E+00
  0.00000000E+00  0.00000000E+00  0.00000000E+00
  0.00000000E+00  0.00000000E+00  0.00000000E+00
  0.00000000E+00  0.00000000E+00  0.00000000E+00
  0.00000000E+00  0.00000000E+00  0.00000000E+00
  0.00000000E+00  0.00000000E+00  0.00000000E+00
  0.00000000E+00  0.00000000E+00  0.00000000E+00
  0.00000000E+00  0.00000000E+00  0.00000000E+00
  0.00000000E+00  0.00000000E+00  0.00000000E+00
  0.00000000E+00  0.00000000E+00  0.00000000E+00
  0.00000000E+00  0.00000000E+00  0.00000000E+00
  0.00000000E+00  0.00000000E+00  0.00000000E+00
  0.00000000E+00  0.00000000E+00  0.00000000E+00
  0.00000000E+00  0.00000000E+00  0.00000000E+00
  0.00000000E+00  0.00000000E+00  0.00000000E+00
  0.00000000E+00  0.00000000E+00  0.00000000E+00
  0.00000000E+00  0.00000000E+00  0.00000000E+00
  0.00000000E+00  0.00000000E+00  0.00000000E+00
  0.00000000E+00  0.00000000E+00  0.00000000E+00
  0.00000000E+00  0.00000000E+00  0.00000000E+00
  0.00000000E+00  0.00000000E+00  0.00000000E+00
  0.00000000E+00  0.00000000E+00  0.00000000E+00
  0.00000000E+00  0.00000000E+00  0.00000000E+00
  0.00000000E+00  0.00000000E+00  0.00000000E+00
  0.00000000E+00  0.00000000E+00  0.00000000E+00
  0.00000000E+00  0.00000000E+00  0.00000000E+00
  0.00000000E+00  0.00000000E+00  0.00000000E+00
