O Ce                                    
   1.00000000000000     
    21.6439990997000002    0.0000000000000000    0.0000000000000000
     0.0000000000000000   21.6439990997000002    0.0000000000000000
     0.0000000000000000    0.0000000000000000   21.6439990997000002
   O    Ce
    34    17
Direct
  0.6858009177636309  0.5282036388253227  0.5365161970854270
  0.9099214826561272  0.4259266042773172  0.8378951431084688
  0.9936437151352390  0.3560671735379430  0.6778768407646967
  0.8152010174393362  0.5343835666757097  0.5240317689587286
  0.9933398263413380  0.4987183743377996  0.7355679219621927
  0.7971736200361519  0.6597709741126314  0.5426095326691071
  0.8524438535504693  0.2787031294288287  0.5637916258287033
  0.8782448305123628  0.5973569895496603  0.7758347981140949
  0.7839015518289610  0.5697583601345205  0.4066029588223726
  0.7577209516293784  0.5702381254568500  0.7934155450338705
  0.6430467299475363  0.5587372273614036  0.8296870035885530
  0.9207996858935796  0.6707806072449310  0.5141098027332762
  0.8346277820921799  0.7301384786521807  0.6856463530305857
  0.9316973782821325  0.5509131614742933  0.4689657271600003
  0.5904923723738728  0.3898255992118135  0.5331552461349255
  0.9569370985549398  0.3845048311558678  0.5362498005717707
  0.7068876202060242  0.2958921271276560  0.4726380928450388
  0.8734199943894473  0.3454900074442461  0.7067115975228473
  0.6721211864495538  0.4359824553239255  0.3998036785997073
  0.7807755516814820  0.5503823322896595  0.9138102690282361
  0.7073052335469175  0.4101175204346698  0.5122998207342585
  0.9493619739331272  0.5216116133967592  0.5936943295837183
  0.8480206763566837  0.4031183416743667  0.5953619682861135
  0.6158534323552448  0.4458076195133510  0.6981378331984091
  0.8387849386832040  0.6074495247131889  0.6520068803900957
  0.8711767156124315  0.4735291959601223  0.7204115735881933
  0.7260205015170595  0.3629273067665961  0.6231371941076449
  0.7513036924371957  0.6853194963065400  0.8311697282019013
  0.7351476504537156  0.4899652978635445  0.6510993471849242
  0.7135152170508634  0.6136424130905127  0.6864146526725515
  0.7508766734903118  0.4468962188354630  0.7735874401514723
  0.8202232546706492  0.4174902110925005  0.4671853487366289
  0.9618061140948114  0.6450695506594806  0.6334133011586829
  0.6031666193661518  0.5050567187420206  0.6670794023627798
  0.7804240986503362  0.3379638721756876  0.5334816688718715
  0.7147057987140715  0.6068039851880725  0.8797507216654847
  0.9513012255612059  0.4069546637284373  0.7548997648948162
  0.8987065633801071  0.4607219864809957  0.5220291717271316
  0.7493130595770683  0.5802440301212703  0.5981996406347557
  0.7941754187343283  0.4076972530886013  0.6898782151873227
  0.7418205325994106  0.4880073161161245  0.4530180692074635
  0.6531137310142449  0.4388584372407915  0.5968519961587863
  0.7955883364236399  0.6543803627028780  0.7465257220881253
  0.8487146044017269  0.6128115002699226  0.4637634577996574
  0.6801370670012293  0.5219374541406618  0.7446513941947130
  0.8351110610954880  0.5024697369768714  0.8298640009349652
  0.8746295369248959  0.6943868791054975  0.6068859052255916
  0.9247956459393671  0.3282672891042323  0.6142752299158174
  0.6388217549132409  0.3609767441685098  0.4532104449572776
  0.9292175685634770  0.5579455966251521  0.6950256998661317
  0.9930972840816513  0.5982204951803908  0.5434953194807587
 
  0.00000000E+00  0.00000000E+00  0.00000000E+00
  0.00000000E+00  0.00000000E+00  0.00000000E+00
  0.00000000E+00  0.00000000E+00  0.00000000E+00
  0.00000000E+00  0.00000000E+00  0.00000000E+00
  0.00000000E+00  0.00000000E+00  0.00000000E+00
  0.00000000E+00  0.00000000E+00  0.00000000E+00
  0.00000000E+00  0.00000000E+00  0.00000000E+00
  0.00000000E+00  0.00000000E+00  0.00000000E+00
  0.00000000E+00  0.00000000E+00  0.00000000E+00
  0.00000000E+00  0.00000000E+00  0.00000000E+00
  0.00000000E+00  0.00000000E+00  0.00000000E+00
  0.00000000E+00  0.00000000E+00  0.00000000E+00
  0.00000000E+00  0.00000000E+00  0.00000000E+00
  0.00000000E+00  0.00000000E+00  0.00000000E+00
  0.00000000E+00  0.00000000E+00  0.00000000E+00
  0.00000000E+00  0.00000000E+00  0.00000000E+00
  0.00000000E+00  0.00000000E+00  0.00000000E+00
  0.00000000E+00  0.00000000E+00  0.00000000E+00
  0.00000000E+00  0.00000000E+00  0.00000000E+00
  0.00000000E+00  0.00000000E+00  0.00000000E+00
  0.00000000E+00  0.00000000E+00  0.00000000E+00
  0.00000000E+00  0.00000000E+00  0.00000000E+00
  0.00000000E+00  0.00000000E+00  0.00000000E+00
  0.00000000E+00  0.00000000E+00  0.00000000E+00
  0.00000000E+00  0.00000000E+00  0.00000000E+00
  0.00000000E+00  0.00000000E+00  0.00000000E+00
  0.00000000E+00  0.00000000E+00  0.00000000E+00
  0.00000000E+00  0.00000000E+00  0.00000000E+00
  0.00000000E+00  0.00000000E+00  0.00000000E+00
  0.00000000E+00  0.00000000E+00  0.00000000E+00
  0.00000000E+00  0.00000000E+00  0.00000000E+00
  0.00000000E+00  0.00000000E+00  0.00000000E+00
  0.00000000E+00  0.00000000E+00  0.00000000E+00
  0.00000000E+00  0.00000000E+00  0.00000000E+00
  0.00000000E+00  0.00000000E+00  0.00000000E+00
  0.00000000E+00  0.00000000E+00  0.00000000E+00
  0.00000000E+00  0.00000000E+00  0.00000000E+00
  0.00000000E+00  0.00000000E+00  0.00000000E+00
  0.00000000E+00  0.00000000E+00  0.00000000E+00
  0.00000000E+00  0.00000000E+00  0.00000000E+00
  0.00000000E+00  0.00000000E+00  0.00000000E+00
  0.00000000E+00  0.00000000E+00  0.00000000E+00
  0.00000000E+00  0.00000000E+00  0.00000000E+00
  0.00000000E+00  0.00000000E+00  0.00000000E+00
  0.00000000E+00  0.00000000E+00  0.00000000E+00
  0.00000000E+00  0.00000000E+00  0.00000000E+00
  0.00000000E+00  0.00000000E+00  0.00000000E+00
  0.00000000E+00  0.00000000E+00  0.00000000E+00
  0.00000000E+00  0.00000000E+00  0.00000000E+00
  0.00000000E+00  0.00000000E+00  0.00000000E+00
  0.00000000E+00  0.00000000E+00  0.00000000E+00
