O Ce                                    
   1.00000000000000     
    21.6439990997000002    0.0000000000000000    0.0000000000000000
     0.0000000000000000   21.6439990997000002    0.0000000000000000
     0.0000000000000000    0.0000000000000000   21.6439990997000002
   O    Ce
    35    17
Direct
  0.6863062170826320  0.5279840365102282  0.5368310560276021
  0.9038879787461130  0.4354189891819446  0.8369032716114828
  0.9926936071776000  0.3586072871296970  0.6786277510017135
  0.8160791103535525  0.5337079757534900  0.5247663284441479
  0.9929687706698244  0.4984895734153544  0.7343559598664881
  0.7987665274715511  0.6590658628461356  0.5407980906688415
  0.8518218133987084  0.2775181797780127  0.5652083820800583
  0.8792931392849250  0.5913460468908612  0.7780908624004513
  0.7847598410344822  0.5681194714018072  0.4067303630056285
  0.7571638637962910  0.5710154614174167  0.7927973001909986
  0.6423879242541940  0.5568448250360908  0.8291907475903805
  0.9228367523080232  0.6693398962839753  0.5118011709858740
  0.8068418942783488  0.7435260130862801  0.6678370163754038
  0.9326104227354425  0.5483805578925453  0.4688575766383491
  0.5900360783813887  0.3907709387725034  0.5321591740850038
  0.9560505828531058  0.3822172883944276  0.5371272205850454
  0.7065095720135440  0.2950322666899989  0.4733884435111141
  0.8732784875062173  0.3466889709926582  0.7083628201945654
  0.6729996659152678  0.4352948041424530  0.3999794758653180
  0.7865909882973386  0.5391062760142784  0.9066987186519322
  0.7072769910070634  0.4093724348193664  0.5127362837790611
  0.9491224503103853  0.5212021271656054  0.5941122804555689
  0.8475619640142288  0.4018189024665903  0.5961750710487030
  0.6183421921736523  0.4430865616722617  0.6988536450916876
  0.8401221888009451  0.6111715470081398  0.6516745060998177
  0.8704727817149782  0.4746245880290208  0.7187420503503461
  0.7254409453835626  0.3622876782996323  0.6234904373701061
  0.7448851986229729  0.6822182323883020  0.8448486730531050
  0.7351227677037917  0.4898406095678922  0.6506987054153897
  0.7095903782837313  0.6117925881842283  0.6842116379261171
  0.7536512164620125  0.4489873755780004  0.7737240580681274
  0.8203999096196922  0.4165015828354750  0.4684684777002072
  0.9633692274980580  0.6444102021826742  0.6317635418123226
  0.6011157889892363  0.5015189509375972  0.6684161913952762
  0.8667130577847684  0.7384025250345381  0.7004846868648102
  0.7798698654402774  0.3368913641655361  0.5338835493237355
  0.7146919758842177  0.6011601786104563  0.8819929191798664
  0.9501270524149776  0.4097713691665136  0.7534834118985101
  0.8987069716441848  0.4599771261471128  0.5228563555274552
  0.7501893509032760  0.5814215070184682  0.5988069668856708
  0.7928540147677953  0.4072883205406003  0.6889930153850914
  0.7422365712508244  0.4876129569397279  0.4539560611620823
  0.6526695928026043  0.4395856845191666  0.5962722810987915
  0.7938984430912912  0.6626023344118163  0.7496757415053674
  0.8500791807206499  0.6115847663852035  0.4632189804968135
  0.6792335397003693  0.5240618092949278  0.7427838144226107
  0.8331163923270803  0.5052626904039028  0.8229665160808396
  0.8761486514604560  0.6944799525939487  0.6050331255728009
  0.9239641878784368  0.3273960767429402  0.6150618976735455
  0.6388778315843553  0.3607178014009416  0.4531055873286831
  0.9289102798253656  0.5605705994722100  0.6944694375855297
  0.9941220978235286  0.5968632514328267  0.5423565472363534
 
  0.00000000E+00  0.00000000E+00  0.00000000E+00
  0.00000000E+00  0.00000000E+00  0.00000000E+00
  0.00000000E+00  0.00000000E+00  0.00000000E+00
  0.00000000E+00  0.00000000E+00  0.00000000E+00
  0.00000000E+00  0.00000000E+00  0.00000000E+00
  0.00000000E+00  0.00000000E+00  0.00000000E+00
  0.00000000E+00  0.00000000E+00  0.00000000E+00
  0.00000000E+00  0.00000000E+00  0.00000000E+00
  0.00000000E+00  0.00000000E+00  0.00000000E+00
  0.00000000E+00  0.00000000E+00  0.00000000E+00
  0.00000000E+00  0.00000000E+00  0.00000000E+00
  0.00000000E+00  0.00000000E+00  0.00000000E+00
  0.00000000E+00  0.00000000E+00  0.00000000E+00
  0.00000000E+00  0.00000000E+00  0.00000000E+00
  0.00000000E+00  0.00000000E+00  0.00000000E+00
  0.00000000E+00  0.00000000E+00  0.00000000E+00
  0.00000000E+00  0.00000000E+00  0.00000000E+00
  0.00000000E+00  0.00000000E+00  0.00000000E+00
  0.00000000E+00  0.00000000E+00  0.00000000E+00
  0.00000000E+00  0.00000000E+00  0.00000000E+00
  0.00000000E+00  0.00000000E+00  0.00000000E+00
  0.00000000E+00  0.00000000E+00  0.00000000E+00
  0.00000000E+00  0.00000000E+00  0.00000000E+00
  0.00000000E+00  0.00000000E+00  0.00000000E+00
  0.00000000E+00  0.00000000E+00  0.00000000E+00
  0.00000000E+00  0.00000000E+00  0.00000000E+00
  0.00000000E+00  0.00000000E+00  0.00000000E+00
  0.00000000E+00  0.00000000E+00  0.00000000E+00
  0.00000000E+00  0.00000000E+00  0.00000000E+00
  0.00000000E+00  0.00000000E+00  0.00000000E+00
  0.00000000E+00  0.00000000E+00  0.00000000E+00
  0.00000000E+00  0.00000000E+00  0.00000000E+00
  0.00000000E+00  0.00000000E+00  0.00000000E+00
  0.00000000E+00  0.00000000E+00  0.00000000E+00
  0.00000000E+00  0.00000000E+00  0.00000000E+00
  0.00000000E+00  0.00000000E+00  0.00000000E+00
  0.00000000E+00  0.00000000E+00  0.00000000E+00
  0.00000000E+00  0.00000000E+00  0.00000000E+00
  0.00000000E+00  0.00000000E+00  0.00000000E+00
  0.00000000E+00  0.00000000E+00  0.00000000E+00
  0.00000000E+00  0.00000000E+00  0.00000000E+00
  0.00000000E+00  0.00000000E+00  0.00000000E+00
  0.00000000E+00  0.00000000E+00  0.00000000E+00
  0.00000000E+00  0.00000000E+00  0.00000000E+00
  0.00000000E+00  0.00000000E+00  0.00000000E+00
  0.00000000E+00  0.00000000E+00  0.00000000E+00
  0.00000000E+00  0.00000000E+00  0.00000000E+00
  0.00000000E+00  0.00000000E+00  0.00000000E+00
  0.00000000E+00  0.00000000E+00  0.00000000E+00
  0.00000000E+00  0.00000000E+00  0.00000000E+00
  0.00000000E+00  0.00000000E+00  0.00000000E+00
  0.00000000E+00  0.00000000E+00  0.00000000E+00
