O Ce                                    
   1.00000000000000     
    21.6439990997000002    0.0000000000000000    0.0000000000000000
     0.0000000000000000   21.6439990997000002    0.0000000000000000
     0.0000000000000000    0.0000000000000000   21.6439990997000002
   O    Ce
    36    18
Direct
  0.2311863737258055  0.5578797525998547  0.8486858698941360
  0.1328864271205875  0.8200892681816240  0.7135928183251914
  0.3385976847817047  0.5849144595496580  0.7115266038715322
  0.0552628091772476  0.6190963332662995  0.8413555156869031
  0.0324571919572953  0.8026725230852867  0.6326834143105871
  0.0311140934221377  0.5307906939064533  0.6946419689880173
  0.3021240810465756  0.7642729297970995  0.7163325878553246
  0.0986949487158572  0.7158108244930680  0.7720818928126275
  0.1071928477937391  0.7269220854135499  0.5585414912468895
  0.0288227962074651  0.7893094974072287  0.8355125404158945
  0.1572120457552642  0.6376080962574719  0.9056619771221762
  0.3516402851969825  0.6757866829793727  0.8623316383498409
  0.1333493058216451  0.5497621630639710  0.7685451079255439
  0.0757583690122832  0.3686832260617781  0.6802809043809757
  0.2383013762164655  0.5770149863618960  0.6377673719979290
  0.2619365179488427  0.6616003892490888  0.7801257147301542
  0.1122760880438659  0.4709567757797991  0.6265266785097090
  0.2426112605144616  0.8214875233644821  0.5464928325685221
  0.1767123020364399  0.3966672576211311  0.5557934893060836
  0.2424919510645610  0.6518484820662538  0.9909857678147487
  0.0996166094310001  0.4530106077443283  0.8309261301835161
  0.1684313386798608  0.6461181587382315  0.7054512560060895
  0.0209802900666164  0.4491831295669015  0.5495684807974127
  0.3099171156767875  0.5100566918696374  0.5692115690042414
  0.0752531665030179  0.6314788057287707  0.6318055898759687
  0.1451947568199165  0.5607638008447532  0.5526645248384557
  0.1216482117790593  0.5452680599019049  0.9764483618795946
  0.2082754826530133  0.4716977236698158  0.7016648253191033
  0.3752840917126026  0.6881414653839032  0.6392235353922440
  0.9972471918634750  0.7017409647771888  0.6998754410531859
  0.0887924878849438  0.7061809061978217  0.9786639075257988
  0.2753750856391073  0.6715086858319335  0.5658222498312179
  0.2048542897389139  0.7426063914209532  0.6409116625597209
  0.9832573946698009  0.6210362212741479  0.5563682129923083
  0.1928609451746427  0.7416576964753663  0.8521321323513193
  0.2526176976970614  0.8564899812636838  0.6043592582017351
  0.3355169298640093  0.5965139505760535  0.6091864905231855
  0.0905516584501268  0.7156140231139021  0.8779881445992231
  0.0371348393152107  0.7911043968130391  0.7383615635570482
  0.1036477493682497  0.4551044261847084  0.7314174080701618
  0.0425072548006622  0.5410591059553354  0.5875749558472184
  0.1267762658599182  0.5405721030535398  0.8742594183902660
  0.1996786939886265  0.7410853136293418  0.7486766480031785
  0.1496214546185603  0.6336107885084448  0.0073019961406865
  0.2606389662594361  0.6576930270998472  0.8877985955757819
  0.0636069535960259  0.6217695910776961  0.7373204432913215
  0.1736227759528567  0.6506299181236923  0.5963683010488857
  0.3620797471022795  0.6814727736518926  0.7556820456037296
  0.0133527507666989  0.7057039952654641  0.5962585855636718
  0.0842065804078166  0.3826579792478034  0.5851279036391710
  0.1426795374310005  0.8201804856004001  0.6046982248235532
  0.3025416266852701  0.7610150304833326  0.6141984413203061
  0.2128776770314126  0.4839528525445705  0.5944770918882399
  0.2353378917927078  0.5654017157171074  0.7442192493308102
 
  0.00000000E+00  0.00000000E+00  0.00000000E+00
  0.00000000E+00  0.00000000E+00  0.00000000E+00
  0.00000000E+00  0.00000000E+00  0.00000000E+00
  0.00000000E+00  0.00000000E+00  0.00000000E+00
  0.00000000E+00  0.00000000E+00  0.00000000E+00
  0.00000000E+00  0.00000000E+00  0.00000000E+00
  0.00000000E+00  0.00000000E+00  0.00000000E+00
  0.00000000E+00  0.00000000E+00  0.00000000E+00
  0.00000000E+00  0.00000000E+00  0.00000000E+00
  0.00000000E+00  0.00000000E+00  0.00000000E+00
  0.00000000E+00  0.00000000E+00  0.00000000E+00
  0.00000000E+00  0.00000000E+00  0.00000000E+00
  0.00000000E+00  0.00000000E+00  0.00000000E+00
  0.00000000E+00  0.00000000E+00  0.00000000E+00
  0.00000000E+00  0.00000000E+00  0.00000000E+00
  0.00000000E+00  0.00000000E+00  0.00000000E+00
  0.00000000E+00  0.00000000E+00  0.00000000E+00
  0.00000000E+00  0.00000000E+00  0.00000000E+00
  0.00000000E+00  0.00000000E+00  0.00000000E+00
  0.00000000E+00  0.00000000E+00  0.00000000E+00
  0.00000000E+00  0.00000000E+00  0.00000000E+00
  0.00000000E+00  0.00000000E+00  0.00000000E+00
  0.00000000E+00  0.00000000E+00  0.00000000E+00
  0.00000000E+00  0.00000000E+00  0.00000000E+00
  0.00000000E+00  0.00000000E+00  0.00000000E+00
  0.00000000E+00  0.00000000E+00  0.00000000E+00
  0.00000000E+00  0.00000000E+00  0.00000000E+00
  0.00000000E+00  0.00000000E+00  0.00000000E+00
  0.00000000E+00  0.00000000E+00  0.00000000E+00
  0.00000000E+00  0.00000000E+00  0.00000000E+00
  0.00000000E+00  0.00000000E+00  0.00000000E+00
  0.00000000E+00  0.00000000E+00  0.00000000E+00
  0.00000000E+00  0.00000000E+00  0.00000000E+00
  0.00000000E+00  0.00000000E+00  0.00000000E+00
  0.00000000E+00  0.00000000E+00  0.00000000E+00
  0.00000000E+00  0.00000000E+00  0.00000000E+00
  0.00000000E+00  0.00000000E+00  0.00000000E+00
  0.00000000E+00  0.00000000E+00  0.00000000E+00
  0.00000000E+00  0.00000000E+00  0.00000000E+00
  0.00000000E+00  0.00000000E+00  0.00000000E+00
  0.00000000E+00  0.00000000E+00  0.00000000E+00
  0.00000000E+00  0.00000000E+00  0.00000000E+00
  0.00000000E+00  0.00000000E+00  0.00000000E+00
  0.00000000E+00  0.00000000E+00  0.00000000E+00
  0.00000000E+00  0.00000000E+00  0.00000000E+00
  0.00000000E+00  0.00000000E+00  0.00000000E+00
  0.00000000E+00  0.00000000E+00  0.00000000E+00
  0.00000000E+00  0.00000000E+00  0.00000000E+00
  0.00000000E+00  0.00000000E+00  0.00000000E+00
  0.00000000E+00  0.00000000E+00  0.00000000E+00
  0.00000000E+00  0.00000000E+00  0.00000000E+00
  0.00000000E+00  0.00000000E+00  0.00000000E+00
  0.00000000E+00  0.00000000E+00  0.00000000E+00
  0.00000000E+00  0.00000000E+00  0.00000000E+00
