O Ce                                    
   1.00000000000000     
    21.6439990997000002    0.0000000000000000    0.0000000000000000
     0.0000000000000000   21.6439990997000002    0.0000000000000000
     0.0000000000000000    0.0000000000000000   21.6439990997000002
   O    Ce
    36    18
Direct
  0.2304624412649551  0.5589624176808466  0.8490469081535711
  0.1347517921301344  0.8217748880327530  0.7129746198803220
  0.3376473695519643  0.5844946884035880  0.7114389170088999
  0.0556501142451835  0.6212054276292961  0.8411373102072762
  0.0333750974048692  0.8039791043104544  0.6325503521599494
  0.0308543906233257  0.5322048103577858  0.6929427650471658
  0.3017502671457406  0.7654079585880728  0.7177661216521962
  0.0994414395874192  0.7172736890384799  0.7714017693586165
  0.1087086684852293  0.7288173467205937  0.5582164035593004
  0.0299014818471242  0.7915404904340955  0.8347569997227787
  0.1570327583679731  0.6388533926578061  0.9059972521064790
  0.3514617416382184  0.6763923662054869  0.8625603465164692
  0.1314406965640536  0.5474788952659548  0.7699763363508811
  0.0737678964008342  0.3697711921631536  0.6786137586685211
  0.2376581467629663  0.5769167242246011  0.6375942699968458
  0.2618780904410917  0.6613702640087872  0.7801758343673137
  0.1111834987011277  0.4714167738248059  0.6250934653540010
  0.2514131916915481  0.8340737573848127  0.5792991317264469
  0.1752951991826714  0.3966657094103993  0.5546154716442394
  0.2420312970059346  0.6550794872914594  0.9914137562260116
  0.0669373282667068  0.4576416911151696  0.8336237897378098
  0.1676446064471223  0.6437847524526579  0.7070130757674621
  0.0202576634339111  0.4512737464664183  0.5473350185669634
  0.3090150533150414  0.5098710311677216  0.5688575293054530
  0.0755798055684252  0.6329886837609481  0.6311974749980299
  0.1448452128443380  0.5614033109544322  0.5517644023892287
  0.1210414185128837  0.5475492142628681  0.9770114921136179
  0.2068684218754586  0.4716646430739002  0.7002255221188293
  0.3744943578551415  0.6880188130251796  0.6399642481916155
  0.9979873931476256  0.7033057937354170  0.6993368521382608
  0.0900235226874916  0.7100331514065151  0.9783115370180454
  0.2752241528838343  0.6711972129106001  0.5648890468375399
  0.2043546742660960  0.7408059582270142  0.6423363161159127
  0.9836117521545732  0.6232134799602521  0.5554187518189413
  0.1935312842229256  0.7422819468486683  0.8521795064432627
  0.1319530180030424  0.4383603614129756  0.8343196715333405
  0.3346610963933785  0.5963023731890286  0.6092773226008218
  0.0911842399554377  0.7172626431561896  0.8772372299886411
  0.0381644548372545  0.7926011240517818  0.7378021207237070
  0.1021262348102106  0.4542401397161698  0.7296710748206900
  0.0421826991825520  0.5428320989519849  0.5866082530903053
  0.1263580093260384  0.5412394961917082  0.8759592792898304
  0.2006503994605182  0.7411713236814483  0.7489697294604690
  0.1494589837050224  0.6369095289424084  0.0074607118695463
  0.2606027418112780  0.6583797259231999  0.8877526042995814
  0.0640147635982160  0.6221013766311484  0.7373211956395399
  0.1738503255065621  0.6504895895031695  0.5963943580352525
  0.3615366648513647  0.6815833332853459  0.7556490445114536
  0.0141572251027575  0.7075489529689455  0.5959597439378941
  0.0825541966059327  0.3841814478500692  0.5826185531790279
  0.1452386217622471  0.8196390325773876  0.6056755063003346
  0.3030461944760371  0.7616755253497929  0.6138542605256466
  0.2121045660973785  0.4840633149534304  0.5938016936862484
  0.2340922509343563  0.5646514053742350  0.7446175129562338
 
  0.00000000E+00  0.00000000E+00  0.00000000E+00
  0.00000000E+00  0.00000000E+00  0.00000000E+00
  0.00000000E+00  0.00000000E+00  0.00000000E+00
  0.00000000E+00  0.00000000E+00  0.00000000E+00
  0.00000000E+00  0.00000000E+00  0.00000000E+00
  0.00000000E+00  0.00000000E+00  0.00000000E+00
  0.00000000E+00  0.00000000E+00  0.00000000E+00
  0.00000000E+00  0.00000000E+00  0.00000000E+00
  0.00000000E+00  0.00000000E+00  0.00000000E+00
  0.00000000E+00  0.00000000E+00  0.00000000E+00
  0.00000000E+00  0.00000000E+00  0.00000000E+00
  0.00000000E+00  0.00000000E+00  0.00000000E+00
  0.00000000E+00  0.00000000E+00  0.00000000E+00
  0.00000000E+00  0.00000000E+00  0.00000000E+00
  0.00000000E+00  0.00000000E+00  0.00000000E+00
  0.00000000E+00  0.00000000E+00  0.00000000E+00
  0.00000000E+00  0.00000000E+00  0.00000000E+00
  0.00000000E+00  0.00000000E+00  0.00000000E+00
  0.00000000E+00  0.00000000E+00  0.00000000E+00
  0.00000000E+00  0.00000000E+00  0.00000000E+00
  0.00000000E+00  0.00000000E+00  0.00000000E+00
  0.00000000E+00  0.00000000E+00  0.00000000E+00
  0.00000000E+00  0.00000000E+00  0.00000000E+00
  0.00000000E+00  0.00000000E+00  0.00000000E+00
  0.00000000E+00  0.00000000E+00  0.00000000E+00
  0.00000000E+00  0.00000000E+00  0.00000000E+00
  0.00000000E+00  0.00000000E+00  0.00000000E+00
  0.00000000E+00  0.00000000E+00  0.00000000E+00
  0.00000000E+00  0.00000000E+00  0.00000000E+00
  0.00000000E+00  0.00000000E+00  0.00000000E+00
  0.00000000E+00  0.00000000E+00  0.00000000E+00
  0.00000000E+00  0.00000000E+00  0.00000000E+00
  0.00000000E+00  0.00000000E+00  0.00000000E+00
  0.00000000E+00  0.00000000E+00  0.00000000E+00
  0.00000000E+00  0.00000000E+00  0.00000000E+00
  0.00000000E+00  0.00000000E+00  0.00000000E+00
  0.00000000E+00  0.00000000E+00  0.00000000E+00
  0.00000000E+00  0.00000000E+00  0.00000000E+00
  0.00000000E+00  0.00000000E+00  0.00000000E+00
  0.00000000E+00  0.00000000E+00  0.00000000E+00
  0.00000000E+00  0.00000000E+00  0.00000000E+00
  0.00000000E+00  0.00000000E+00  0.00000000E+00
  0.00000000E+00  0.00000000E+00  0.00000000E+00
  0.00000000E+00  0.00000000E+00  0.00000000E+00
  0.00000000E+00  0.00000000E+00  0.00000000E+00
  0.00000000E+00  0.00000000E+00  0.00000000E+00
  0.00000000E+00  0.00000000E+00  0.00000000E+00
  0.00000000E+00  0.00000000E+00  0.00000000E+00
  0.00000000E+00  0.00000000E+00  0.00000000E+00
  0.00000000E+00  0.00000000E+00  0.00000000E+00
  0.00000000E+00  0.00000000E+00  0.00000000E+00
  0.00000000E+00  0.00000000E+00  0.00000000E+00
  0.00000000E+00  0.00000000E+00  0.00000000E+00
  0.00000000E+00  0.00000000E+00  0.00000000E+00
