O Ce                                    
   1.00000000000000     
    21.6439990999999985    0.0000000000000000    0.0000000000000000
     0.0000000000000000   21.6439990999999985    0.0000000000000000
     0.0000000000000000    0.0000000000000000   21.6439990999999985
   O    Ce
    35    18
Direct
  0.2310116166326240  0.5575703485062000  0.8485971643487437
  0.1338618552153022  0.8210506268757881  0.7131869393901332
  0.3388820328007748  0.5857520135581248  0.7106574034198850
  0.0555962923304394  0.6195072290440682  0.8409203411420065
  0.0324240580330650  0.8026011878957532  0.6332131284954039
  0.0314523231978248  0.5308235149187553  0.6939287934891614
  0.3010309533327099  0.7659651952816106  0.7178506955786007
  0.0991743913346898  0.7161137993352533  0.7718646025813920
  0.1079535758474913  0.7279444159336650  0.5582793794135690
  0.0299080643079860  0.7902977065218008  0.8354232815757469
  0.1571933926332139  0.6377642216921536  0.9054880236412397
  0.3512752131307179  0.6771027911284370  0.8622761164975328
  0.1333978037219171  0.5488281510049438  0.7686831050703334
  0.0756658021621305  0.3683358944449779  0.6804177820674011
  0.2386292241721221  0.5770958011024345  0.6374682392651718
  0.2617836884802308  0.6614398546095250  0.7800582289988157
  0.1127653225888006  0.4704202546423656  0.6266324786849412
  0.2496811988192759  0.8343678637260142  0.5784864057126567
  0.1770655442988716  0.3962226983110999  0.5556905231373389
  0.2423850740308932  0.6522744156361063  0.9910073222126790
  0.0971263617987137  0.4530590615440131  0.8309928916390757
  0.1681417370961228  0.6447188914986356  0.7058635434723748
  0.0215186187805955  0.4488372908840262  0.5495524102122117
  0.3097314750957014  0.5111642329517969  0.5677752645032281
  0.0757174709091036  0.6314002448637815  0.6310809961105077
  0.1453716006285526  0.5600991988571469  0.5524829067986993
  0.1203614825425449  0.5459740346345427  0.9761105702963251
  0.2086939518193471  0.4717334598587744  0.7013914172602421
  0.3742903711806887  0.6899439611647835  0.6394455062169303
  0.9979441724804321  0.7014754765215026  0.6996563938500634
  0.0894634068673729  0.7072952155139157  0.9785490321744914
  0.2751473163493579  0.6719687688363919  0.5644051611010303
  0.2040103074097161  0.7409926344253910  0.6422127787941437
  0.9836987713826476  0.6215716727252949  0.5558229381402623
  0.1933803316898929  0.7418217538927152  0.8525635622012315
  0.3351646171719639  0.5975882593878689  0.6083860638958857
  0.0912338557434790  0.7160839479452665  0.8777827688555865
  0.0377603166451462  0.7912453850205015  0.7383447513665228
  0.1033001627214775  0.4548598516392665  0.7316038372471478
  0.0431964955090022  0.5406856158815134  0.5871882080832745
  0.1260050259941124  0.5406954161778836  0.8742131086438641
  0.2004935482926241  0.7410893106714095  0.7490861224774757
  0.1495563998632751  0.6342102039173132  0.0071133646457925
  0.2607843086830103  0.6576540946018753  0.8877257213883383
  0.0643774825303040  0.6217658240375613  0.7368932555555070
  0.1739970957384664  0.6502902511666392  0.5966616966738680
  0.3616569515553416  0.6826499661294999  0.7551639636737419
  0.0135005636584137  0.7056639730661127  0.5960749720772794
  0.0847150240491996  0.3822361153426774  0.5853180269511394
  0.1435344438819665  0.8189857816885744  0.6055280505354598
  0.3021302133234329  0.7628247086174816  0.6135942712627407
  0.2133301521133318  0.4837754373388248  0.5941422553264234
  0.2354618008050217  0.5650485906164674  0.7441378367984592
 
  0.00000000E+00  0.00000000E+00  0.00000000E+00
  0.00000000E+00  0.00000000E+00  0.00000000E+00
  0.00000000E+00  0.00000000E+00  0.00000000E+00
  0.00000000E+00  0.00000000E+00  0.00000000E+00
  0.00000000E+00  0.00000000E+00  0.00000000E+00
  0.00000000E+00  0.00000000E+00  0.00000000E+00
  0.00000000E+00  0.00000000E+00  0.00000000E+00
  0.00000000E+00  0.00000000E+00  0.00000000E+00
  0.00000000E+00  0.00000000E+00  0.00000000E+00
  0.00000000E+00  0.00000000E+00  0.00000000E+00
  0.00000000E+00  0.00000000E+00  0.00000000E+00
  0.00000000E+00  0.00000000E+00  0.00000000E+00
  0.00000000E+00  0.00000000E+00  0.00000000E+00
  0.00000000E+00  0.00000000E+00  0.00000000E+00
  0.00000000E+00  0.00000000E+00  0.00000000E+00
  0.00000000E+00  0.00000000E+00  0.00000000E+00
  0.00000000E+00  0.00000000E+00  0.00000000E+00
  0.00000000E+00  0.00000000E+00  0.00000000E+00
  0.00000000E+00  0.00000000E+00  0.00000000E+00
  0.00000000E+00  0.00000000E+00  0.00000000E+00
  0.00000000E+00  0.00000000E+00  0.00000000E+00
  0.00000000E+00  0.00000000E+00  0.00000000E+00
  0.00000000E+00  0.00000000E+00  0.00000000E+00
  0.00000000E+00  0.00000000E+00  0.00000000E+00
  0.00000000E+00  0.00000000E+00  0.00000000E+00
  0.00000000E+00  0.00000000E+00  0.00000000E+00
  0.00000000E+00  0.00000000E+00  0.00000000E+00
  0.00000000E+00  0.00000000E+00  0.00000000E+00
  0.00000000E+00  0.00000000E+00  0.00000000E+00
  0.00000000E+00  0.00000000E+00  0.00000000E+00
  0.00000000E+00  0.00000000E+00  0.00000000E+00
  0.00000000E+00  0.00000000E+00  0.00000000E+00
  0.00000000E+00  0.00000000E+00  0.00000000E+00
  0.00000000E+00  0.00000000E+00  0.00000000E+00
  0.00000000E+00  0.00000000E+00  0.00000000E+00
  0.00000000E+00  0.00000000E+00  0.00000000E+00
  0.00000000E+00  0.00000000E+00  0.00000000E+00
  0.00000000E+00  0.00000000E+00  0.00000000E+00
  0.00000000E+00  0.00000000E+00  0.00000000E+00
  0.00000000E+00  0.00000000E+00  0.00000000E+00
  0.00000000E+00  0.00000000E+00  0.00000000E+00
  0.00000000E+00  0.00000000E+00  0.00000000E+00
  0.00000000E+00  0.00000000E+00  0.00000000E+00
  0.00000000E+00  0.00000000E+00  0.00000000E+00
  0.00000000E+00  0.00000000E+00  0.00000000E+00
  0.00000000E+00  0.00000000E+00  0.00000000E+00
  0.00000000E+00  0.00000000E+00  0.00000000E+00
  0.00000000E+00  0.00000000E+00  0.00000000E+00
  0.00000000E+00  0.00000000E+00  0.00000000E+00
  0.00000000E+00  0.00000000E+00  0.00000000E+00
  0.00000000E+00  0.00000000E+00  0.00000000E+00
  0.00000000E+00  0.00000000E+00  0.00000000E+00
  0.00000000E+00  0.00000000E+00  0.00000000E+00
