O Ce                                    
   1.00000000000000     
    21.6439990997000002    0.0000000000000000    0.0000000000000000
     0.0000000000000000   21.6439990997000002    0.0000000000000000
     0.0000000000000000    0.0000000000000000   21.6439990997000002
   O    Ce
    37    18
Direct
  0.2308591392438486  0.5596828327156114  0.8487365217344517
  0.1333071061314862  0.8207395339541117  0.7133892872450716
  0.3381425846238055  0.5848696852408921  0.7115470449619336
  0.0555510151862626  0.6207144134200665  0.8413631066032484
  0.0327211414406752  0.8034478502427266  0.6324787929096635
  0.0310735818182644  0.5314895943209750  0.6934418117535377
  0.3019594936128193  0.7646299418075114  0.7160858184130270
  0.0987417715723780  0.7165682347862490  0.7716555679477617
  0.1073151731507322  0.7273992739458202  0.5585599170186880
  0.0293135805497011  0.7905743139201596  0.8352200516094906
  0.1570985188565059  0.6388444511831479  0.9059952392144391
  0.3515868680062184  0.6767472584153134  0.8621324646554234
  0.1319596493014907  0.5478389676575677  0.7698123549121739
  0.0752550694925693  0.3693858607352423  0.6791634524445826
  0.2379760686757433  0.5772867354074028  0.6376814305595194
  0.2619267933530190  0.6620018037763779  0.7798113690253461
  0.1117145834627920  0.4712167454818708  0.6254314674129391
  0.2428764848127356  0.8213377935078368  0.5466214987232235
  0.1761462426286320  0.3969877078466168  0.5547070941265094
  0.2423625470003053  0.6555381205164544  0.9910662430604213
  0.0659265366858494  0.4586324388111226  0.8333974132776228
  0.1677374206597474  0.6449226387734807  0.7064203759803281
  0.0208573344853479  0.4501106531496831  0.5479228377709675
  0.3096832152690830  0.5100562757553442  0.5693202190622093
  0.0752105957561415  0.6321867941241317  0.6316606096135291
  0.1450168892628634  0.5613948129558942  0.5521374499252326
  0.1219024406404077  0.5473120442742260  0.9769384315571225
  0.2075377399348721  0.4722129581918912  0.7004641999409542
  0.3752607555091725  0.6882274850309310  0.6394049713201921
  0.9974691356886510  0.7024204186959724  0.6996710958859130
  0.0898279746324921  0.7093639699058146  0.9785958319401752
  0.2753342397832025  0.6715401479091060  0.5658109181336620
  0.2046701466277263  0.7422460290982194  0.6412251629226424
  0.9832758394635073  0.6217911895673662  0.5559790680238061
  0.1931225904432451  0.7425097055500912  0.8517588146268082
  0.1306734660038318  0.4383973851772355  0.8349094674167039
  0.2525746962739697  0.8564239128154034  0.6045542420266881
  0.3352528929960295  0.5964287706159327  0.6094146048840458
  0.0906952955275946  0.7169106970389163  0.8775803614160216
  0.0373168767076613  0.7917950696401324  0.7380176580572905
  0.1026456317592324  0.4542409975242464  0.7299422286674875
  0.0422963711753162  0.5420258808822758  0.5869703292879032
  0.1265025618443730  0.5414631266224131  0.8759137540329177
  0.1997150880203115  0.7415228598617853  0.7485510833997668
  0.1500066318934960  0.6366722597208683  0.0074532848190180
  0.2605556648493465  0.6589379123201828  0.8873841549483653
  0.0635884159972324  0.6217564244328260  0.7375300956931130
  0.1735028917312598  0.6508441634991705  0.5963124713618774
  0.3620039731039407  0.6814246643032146  0.7554931644738447
  0.0134945925610907  0.7064526565404605  0.5961792244684703
  0.0836963510999991  0.3836229103586836  0.5831389372115118
  0.1429304312451126  0.8205852581966290  0.6047335574500232
  0.3026819760376498  0.7609379269939062  0.6142077968776333
  0.2125349873400243  0.4843593143479803  0.5940829731260263
  0.2343509182932497  0.5652827337478018  0.7444942573734381
 
  0.00000000E+00  0.00000000E+00  0.00000000E+00
  0.00000000E+00  0.00000000E+00  0.00000000E+00
  0.00000000E+00  0.00000000E+00  0.00000000E+00
  0.00000000E+00  0.00000000E+00  0.00000000E+00
  0.00000000E+00  0.00000000E+00  0.00000000E+00
  0.00000000E+00  0.00000000E+00  0.00000000E+00
  0.00000000E+00  0.00000000E+00  0.00000000E+00
  0.00000000E+00  0.00000000E+00  0.00000000E+00
  0.00000000E+00  0.00000000E+00  0.00000000E+00
  0.00000000E+00  0.00000000E+00  0.00000000E+00
  0.00000000E+00  0.00000000E+00  0.00000000E+00
  0.00000000E+00  0.00000000E+00  0.00000000E+00
  0.00000000E+00  0.00000000E+00  0.00000000E+00
  0.00000000E+00  0.00000000E+00  0.00000000E+00
  0.00000000E+00  0.00000000E+00  0.00000000E+00
  0.00000000E+00  0.00000000E+00  0.00000000E+00
  0.00000000E+00  0.00000000E+00  0.00000000E+00
  0.00000000E+00  0.00000000E+00  0.00000000E+00
  0.00000000E+00  0.00000000E+00  0.00000000E+00
  0.00000000E+00  0.00000000E+00  0.00000000E+00
  0.00000000E+00  0.00000000E+00  0.00000000E+00
  0.00000000E+00  0.00000000E+00  0.00000000E+00
  0.00000000E+00  0.00000000E+00  0.00000000E+00
  0.00000000E+00  0.00000000E+00  0.00000000E+00
  0.00000000E+00  0.00000000E+00  0.00000000E+00
  0.00000000E+00  0.00000000E+00  0.00000000E+00
  0.00000000E+00  0.00000000E+00  0.00000000E+00
  0.00000000E+00  0.00000000E+00  0.00000000E+00
  0.00000000E+00  0.00000000E+00  0.00000000E+00
  0.00000000E+00  0.00000000E+00  0.00000000E+00
  0.00000000E+00  0.00000000E+00  0.00000000E+00
  0.00000000E+00  0.00000000E+00  0.00000000E+00
  0.00000000E+00  0.00000000E+00  0.00000000E+00
  0.00000000E+00  0.00000000E+00  0.00000000E+00
  0.00000000E+00  0.00000000E+00  0.00000000E+00
  0.00000000E+00  0.00000000E+00  0.00000000E+00
  0.00000000E+00  0.00000000E+00  0.00000000E+00
  0.00000000E+00  0.00000000E+00  0.00000000E+00
  0.00000000E+00  0.00000000E+00  0.00000000E+00
  0.00000000E+00  0.00000000E+00  0.00000000E+00
  0.00000000E+00  0.00000000E+00  0.00000000E+00
  0.00000000E+00  0.00000000E+00  0.00000000E+00
  0.00000000E+00  0.00000000E+00  0.00000000E+00
  0.00000000E+00  0.00000000E+00  0.00000000E+00
  0.00000000E+00  0.00000000E+00  0.00000000E+00
  0.00000000E+00  0.00000000E+00  0.00000000E+00
  0.00000000E+00  0.00000000E+00  0.00000000E+00
  0.00000000E+00  0.00000000E+00  0.00000000E+00
  0.00000000E+00  0.00000000E+00  0.00000000E+00
  0.00000000E+00  0.00000000E+00  0.00000000E+00
  0.00000000E+00  0.00000000E+00  0.00000000E+00
  0.00000000E+00  0.00000000E+00  0.00000000E+00
  0.00000000E+00  0.00000000E+00  0.00000000E+00
  0.00000000E+00  0.00000000E+00  0.00000000E+00
  0.00000000E+00  0.00000000E+00  0.00000000E+00
