O  Ce                                   
   1.00000000000000     
    21.6439990997000002    0.0000000000000000    0.0000000000000000
     0.0000000000000000   21.6439990997000002    0.0000000000000000
     0.0000000000000000    0.0000000000000000   21.6439990997000002
   O    Ce
     3     2
Direct
  0.8266098837636681  0.3879492542440274  0.4232752254524045
  0.7371469504163783  0.2982173209257067  0.4231458733352670
  0.7988294870710803  0.3261862748758747  0.3161201653038862
  0.8348597896153420  0.2901816176853982  0.4023653278295310
  0.7400538891765618  0.3849655322808377  0.3725934080480168
 
  0.00000000E+00  0.00000000E+00  0.00000000E+00
  0.00000000E+00  0.00000000E+00  0.00000000E+00
  0.00000000E+00  0.00000000E+00  0.00000000E+00
  0.00000000E+00  0.00000000E+00  0.00000000E+00
  0.00000000E+00  0.00000000E+00  0.00000000E+00
