O  Ce                                   
   1.00000000000000     
    21.6439990997000002    0.0000000000000000    0.0000000000000000
     0.0000000000000000   21.6439990997000002    0.0000000000000000
     0.0000000000000000    0.0000000000000000   21.6439990997000002
   O    Ce
     4     2
Direct
  0.8109481314544593  0.5830947698985199  0.7722218158267342
  0.9532964715707793  0.6035137994417521  0.8291199766385758
  0.7544137120638799  0.5634856080384644  0.6299006052601771
  0.8975779249523788  0.5830343352279692  0.6855675950651147
  0.8039296143315009  0.6142932335928906  0.6785964069944559
  0.9048341456749353  0.5525782538489125  0.7795936002524800
 
  0.00000000E+00  0.00000000E+00  0.00000000E+00
  0.00000000E+00  0.00000000E+00  0.00000000E+00
  0.00000000E+00  0.00000000E+00  0.00000000E+00
  0.00000000E+00  0.00000000E+00  0.00000000E+00
  0.00000000E+00  0.00000000E+00  0.00000000E+00
  0.00000000E+00  0.00000000E+00  0.00000000E+00
