O  Ce                                   
   1.00000000000000     
    21.6439990997000002    0.0000000000000000    0.0000000000000000
     0.0000000000000000   21.6439990997000002    0.0000000000000000
     0.0000000000000000    0.0000000000000000   21.6439990997000002
   O    Ce
     5     2
Direct
  0.4357406476053784  0.1588053889221553  0.5559044357710942
  0.4237705352707378  0.0686006920290111  0.4633905299576372
  0.3987343938809799  0.0038893093430586  0.6240147994802148
  0.4196503808550312  0.2311613410220357  0.3980701056180723
  0.3301895654705531  0.1114668353101749  0.4965448422361625
  0.3962369261232532  0.0669579890750114  0.5635986444564213
  0.4081775507521945  0.1716184442751690  0.4609766424951204
 
  0.00000000E+00  0.00000000E+00  0.00000000E+00
  0.00000000E+00  0.00000000E+00  0.00000000E+00
  0.00000000E+00  0.00000000E+00  0.00000000E+00
  0.00000000E+00  0.00000000E+00  0.00000000E+00
  0.00000000E+00  0.00000000E+00  0.00000000E+00
  0.00000000E+00  0.00000000E+00  0.00000000E+00
  0.00000000E+00  0.00000000E+00  0.00000000E+00
