O  Ce                                   
   1.00000000000000     
    21.6439990997000002    0.0000000000000000    0.0000000000000000
     0.0000000000000000   21.6439990997000002    0.0000000000000000
     0.0000000000000000    0.0000000000000000   21.6439990997000002
   O    Ce
     7     3
Direct
  0.0777304314977756  0.6619577887231330  0.8949497759732655
  0.0114566486526287  0.7501211260925796  0.8271954028919133
  0.0654363186522562  0.6785579031570281  0.7374323111425182
  0.1286477841304505  0.8001785576358265  0.8148196919240334
 -0.0053277005344665  0.8348155468936691  0.6868929688598279
  0.0474266474945359  0.8398937539110419  0.6551740402029481
  0.0629396077982339  0.8104479356480029  0.9740354711629233
  0.0170118731263305  0.6468811758701297  0.8210032374431604
  0.0881983510373929  0.7641681725862410  0.9056918423257250
  0.0689800382104028  0.7754780395525137  0.7453052581045786
 
  0.00000000E+00  0.00000000E+00  0.00000000E+00
  0.00000000E+00  0.00000000E+00  0.00000000E+00
  0.00000000E+00  0.00000000E+00  0.00000000E+00
  0.00000000E+00  0.00000000E+00  0.00000000E+00
  0.00000000E+00  0.00000000E+00  0.00000000E+00
  0.00000000E+00  0.00000000E+00  0.00000000E+00
  0.00000000E+00  0.00000000E+00  0.00000000E+00
  0.00000000E+00  0.00000000E+00  0.00000000E+00
  0.00000000E+00  0.00000000E+00  0.00000000E+00
  0.00000000E+00  0.00000000E+00  0.00000000E+00
