O  Ce                                   
   1.00000000000000     
    21.6439990997000002    0.0000000000000000    0.0000000000000000
     0.0000000000000000   21.6439990997000002    0.0000000000000000
     0.0000000000000000    0.0000000000000000   21.6439990997000002
   O    Ce
     6     3
Direct
  0.9983419953033468  0.4876117602966727  0.1408158601610572
  0.1408191117090715  0.4876122488503234  0.9983427359607716
  0.0326345920540623  0.4285697268780446  0.0326312207273898
  0.1179392443620713  0.4499513735747124  0.1179432325534749
  0.0888378686979915  0.3346898888282456  0.0888347443106831
  0.0247060008237814  0.6006804603785875  0.0247144665047944
  0.0286667998911742  0.4015268233408121  0.1315442199671119
  0.1315454636852698  0.4015297477932750  0.0286628440477137
  0.0615089235049855  0.5328279700471834  0.0615106757987719
 
  0.00000000E+00  0.00000000E+00  0.00000000E+00
  0.00000000E+00  0.00000000E+00  0.00000000E+00
  0.00000000E+00  0.00000000E+00  0.00000000E+00
  0.00000000E+00  0.00000000E+00  0.00000000E+00
  0.00000000E+00  0.00000000E+00  0.00000000E+00
  0.00000000E+00  0.00000000E+00  0.00000000E+00
  0.00000000E+00  0.00000000E+00  0.00000000E+00
  0.00000000E+00  0.00000000E+00  0.00000000E+00
  0.00000000E+00  0.00000000E+00  0.00000000E+00
