O  Ce                                   
   1.00000000000000     
    21.6439990997000002    0.0000000000000000    0.0000000000000000
     0.0000000000000000   21.6439990997000002    0.0000000000000000
     0.0000000000000000    0.0000000000000000   21.6439990997000002
   O    Ce
     5     3
Direct
  0.4449861823503902  0.5520100540526306  0.8626380381873370
  0.3173851777989143  0.5186526583858490  0.7140358794852645
  0.3362216672002823  0.5986063724816200  0.8125774001328201
  0.3795513614665840  0.6899401678281443  0.7345390172923149
  0.4312380029369855  0.5732227563849246  0.7366324101931296
  0.4330267984756933  0.6420162051899095  0.8174216735230703
  0.3826800085838902  0.5028994493253969  0.8012879713598151
  0.3374108011950691  0.6101523364049439  0.7083676098542653
 
  0.00000000E+00  0.00000000E+00  0.00000000E+00
  0.00000000E+00  0.00000000E+00  0.00000000E+00
  0.00000000E+00  0.00000000E+00  0.00000000E+00
  0.00000000E+00  0.00000000E+00  0.00000000E+00
  0.00000000E+00  0.00000000E+00  0.00000000E+00
  0.00000000E+00  0.00000000E+00  0.00000000E+00
  0.00000000E+00  0.00000000E+00  0.00000000E+00
  0.00000000E+00  0.00000000E+00  0.00000000E+00
