Cluster_CeO                             
   1.00000000000000     
    20.9244995116999988    0.0000000000000000    0.0000000000000000
     0.0000000000000000   20.9244995116999988    0.0000000000000000
     0.0000000000000000    0.0000000000000000   20.9244995116999988
   O    Ce
     6     3
Direct
  0.4505711897652543  0.5989125851926024  0.4180874801077815
  0.4671493359620607  0.3770065957045897  0.5905031155381675
  0.6145223972121433  0.6221659705578334  0.4737193309191223
  0.5452466836636165  0.4592159943158721  0.4519700978436245
  0.3762007846563542  0.4749882116744874  0.4779747466703149
  0.4758934770378637  0.5403173374921623  0.5327124561530063
  0.4710608665657595  0.4264785450883191  0.5163205289203424
  0.3913373400973048  0.5686184700209717  0.4861545698141680
  0.5527078307249437  0.5623563069599383  0.4502277642330976
 
  0.00000000E+00  0.00000000E+00  0.00000000E+00
  0.00000000E+00  0.00000000E+00  0.00000000E+00
  0.00000000E+00  0.00000000E+00  0.00000000E+00
  0.00000000E+00  0.00000000E+00  0.00000000E+00
  0.00000000E+00  0.00000000E+00  0.00000000E+00
  0.00000000E+00  0.00000000E+00  0.00000000E+00
  0.00000000E+00  0.00000000E+00  0.00000000E+00
  0.00000000E+00  0.00000000E+00  0.00000000E+00
  0.00000000E+00  0.00000000E+00  0.00000000E+00
