Cluster-CeO2                            
   1.00000000000000     
    20.9244995116999988    0.0000000000000000    0.0000000000000000
     0.0000000000000000   20.9244995116999988    0.0000000000000000
     0.0000000000000000    0.0000000000000000   20.9244995116999988
   O    Ce
     5     3
Direct
  0.5708703524713777  0.5406733834461181  0.5276808414235198
  0.4473097388818128  0.5472637205758134  0.4721818397869814
  0.5646485074467885  0.4926015562814999  0.3562905770967494
  0.4690123765003980  0.4137726381492836  0.4810682281443211
  0.4262824083802843  0.5164342398301507  0.6008083597186258
  0.4897957635727652  0.5887421101675534  0.5623954929912349
  0.3914755783095665  0.4662663466688546  0.5172213117707571
  0.5388151741476808  0.4845960151933263  0.4421534136605231
 
  0.00000000E+00  0.00000000E+00  0.00000000E+00
  0.00000000E+00  0.00000000E+00  0.00000000E+00
  0.00000000E+00  0.00000000E+00  0.00000000E+00
  0.00000000E+00  0.00000000E+00  0.00000000E+00
  0.00000000E+00  0.00000000E+00  0.00000000E+00
  0.00000000E+00  0.00000000E+00  0.00000000E+00
  0.00000000E+00  0.00000000E+00  0.00000000E+00
  0.00000000E+00  0.00000000E+00  0.00000000E+00
