O  Ce                                   
   1.00000000000000     
    21.6439990997000002    0.0000000000000000    0.0000000000000000
     0.0000000000000000   21.6439990997000002    0.0000000000000000
     0.0000000000000000    0.0000000000000000   21.6439990997000002
   O    Ce
     7     4
Direct
  0.9960772815174905  0.7855287008761617  0.6620567356396898
  0.0624852724362113  0.6875073270219383  0.6654021810523932
  0.0624977443352931  0.6874773456013913  0.7854235836689650
  0.1548832032754698  0.7614186683303423  0.6606605247671347
  0.0625444784073806  0.6874696865647169  0.5485465312542638
  0.9701234335902136  0.6135222433578784  0.6606654279519816
  0.1289347606453042  0.5895881730268157  0.6620395382314329
  0.9807039572049547  0.6995697688847586  0.7257130158324361
  0.0744178362923932  0.7686113076229503  0.6081506315839627
  0.1442619723986452  0.6754051462526408  0.7257068154269750
  0.0505700599408251  0.6064016325305718  0.6081350146574636
 
  0.00000000E+00  0.00000000E+00  0.00000000E+00
  0.00000000E+00  0.00000000E+00  0.00000000E+00
  0.00000000E+00  0.00000000E+00  0.00000000E+00
  0.00000000E+00  0.00000000E+00  0.00000000E+00
  0.00000000E+00  0.00000000E+00  0.00000000E+00
  0.00000000E+00  0.00000000E+00  0.00000000E+00
  0.00000000E+00  0.00000000E+00  0.00000000E+00
  0.00000000E+00  0.00000000E+00  0.00000000E+00
  0.00000000E+00  0.00000000E+00  0.00000000E+00
  0.00000000E+00  0.00000000E+00  0.00000000E+00
  0.00000000E+00  0.00000000E+00  0.00000000E+00
