O  Ce                                   
   1.00000000000000     
    21.6439990997000002    0.0000000000000000    0.0000000000000000
     0.0000000000000000   21.6439990997000002    0.0000000000000000
     0.0000000000000000    0.0000000000000000   21.6439990997000002
   O    Ce
     9     4
Direct
  0.9497343149697450  0.0596658932449280  0.7381922203079001
  0.8323701458157282  0.1733932218609354  0.7833956788160784
  0.8620351048425589  0.1760145372313917  0.6592748834232088
  0.7380318272566642  0.2035588650708839  0.6701359208145059
  0.8012836973972379  0.0639002174233487  0.6562398487011140
  0.8886915880518795  0.3030240083452966  0.6818792366666373
  0.8225143465347833  0.1925588297155955  0.5396472157114166
  0.8324337559400694  0.3115815301932597  0.6441586433124575
  0.9782180834268424  0.2324151079424366  0.5490145483929971
  0.8098147766192481  0.2433931139970075  0.7238342857633099
  0.7761907859311774  0.1402180594639645  0.6037910052726403
  0.8701747855383184  0.0911849590894790  0.7293360310097954
  0.9010067877944299  0.2465916563975058  0.5836004818919671
 
  0.00000000E+00  0.00000000E+00  0.00000000E+00
  0.00000000E+00  0.00000000E+00  0.00000000E+00
  0.00000000E+00  0.00000000E+00  0.00000000E+00
  0.00000000E+00  0.00000000E+00  0.00000000E+00
  0.00000000E+00  0.00000000E+00  0.00000000E+00
  0.00000000E+00  0.00000000E+00  0.00000000E+00
  0.00000000E+00  0.00000000E+00  0.00000000E+00
  0.00000000E+00  0.00000000E+00  0.00000000E+00
  0.00000000E+00  0.00000000E+00  0.00000000E+00
  0.00000000E+00  0.00000000E+00  0.00000000E+00
  0.00000000E+00  0.00000000E+00  0.00000000E+00
  0.00000000E+00  0.00000000E+00  0.00000000E+00
  0.00000000E+00  0.00000000E+00  0.00000000E+00
