O  Ce                                   
   1.00000000000000     
    21.6439990997000002    0.0000000000000000    0.0000000000000000
     0.0000000000000000   21.6439990997000002    0.0000000000000000
     0.0000000000000000    0.0000000000000000   21.6439990997000002
   O    Ce
     8     4
Direct
  0.7117198241269499  0.5461751411164865  0.5559689598949309
  0.6208608761339142  0.2938262079739872  0.5814752974504439
  0.7871321493209361  0.3154292162032604  0.6126149188030983
  0.5684548720044678  0.4561813504739908  0.5392684688131003
  0.7333304244119385  0.2971626378841941  0.4536487071915135
  0.5871528206452420  0.3421008764017460  0.4382404741002733
  0.6825421599625395  0.4607306861184370  0.4128620579145797
  0.6750811023836530  0.3899377217836882  0.5183211524672047
  0.6591893468488740  0.4978381566652956  0.5078202018416977
  0.6799145718150774  0.3651219232124720  0.4129789587577536
  0.7227642347593402  0.2996213105310329  0.5577601116206128
  0.5718576176979624  0.3608747716764147  0.5340406912065787
 
  0.00000000E+00  0.00000000E+00  0.00000000E+00
  0.00000000E+00  0.00000000E+00  0.00000000E+00
  0.00000000E+00  0.00000000E+00  0.00000000E+00
  0.00000000E+00  0.00000000E+00  0.00000000E+00
  0.00000000E+00  0.00000000E+00  0.00000000E+00
  0.00000000E+00  0.00000000E+00  0.00000000E+00
  0.00000000E+00  0.00000000E+00  0.00000000E+00
  0.00000000E+00  0.00000000E+00  0.00000000E+00
  0.00000000E+00  0.00000000E+00  0.00000000E+00
  0.00000000E+00  0.00000000E+00  0.00000000E+00
  0.00000000E+00  0.00000000E+00  0.00000000E+00
  0.00000000E+00  0.00000000E+00  0.00000000E+00
