O  Ce                                   
   1.00000000000000     
    21.6439990997000002    0.0000000000000000    0.0000000000000000
     0.0000000000000000   21.6439990997000002    0.0000000000000000
     0.0000000000000000    0.0000000000000000   21.6439990997000002
   O    Ce
     8     4
Direct
  0.2834405527971319  0.7210313301960493  0.1609722533295984
  0.5751170519744472  0.7170059275914487  0.0580936110333773
  0.4451072671107734  0.6356252249447113  0.9836793792530357
  0.4200865110873281  0.7901535160977272  0.0492541747298990
  0.1547143700269355  0.6313566815899450  0.0901894561979561
  0.3104373804035496  0.5651229459778785  0.0970846534203722
  0.3061172551622295  0.6798997336349766  0.0432124760184821
  0.4216206887372668  0.6749221598725986  0.1016667012351498
  0.2367674323287235  0.6380883574343155  0.1154637961935618
  0.3517839866559518  0.7519878646048346  0.1028607219373514
  0.4931037273437040  0.7161459945137650  0.0315221279810401
  0.3767037764095043  0.6036602635850707  0.0410006487054115
 
  0.00000000E+00  0.00000000E+00  0.00000000E+00
  0.00000000E+00  0.00000000E+00  0.00000000E+00
  0.00000000E+00  0.00000000E+00  0.00000000E+00
  0.00000000E+00  0.00000000E+00  0.00000000E+00
  0.00000000E+00  0.00000000E+00  0.00000000E+00
  0.00000000E+00  0.00000000E+00  0.00000000E+00
  0.00000000E+00  0.00000000E+00  0.00000000E+00
  0.00000000E+00  0.00000000E+00  0.00000000E+00
  0.00000000E+00  0.00000000E+00  0.00000000E+00
  0.00000000E+00  0.00000000E+00  0.00000000E+00
  0.00000000E+00  0.00000000E+00  0.00000000E+00
  0.00000000E+00  0.00000000E+00  0.00000000E+00
