O  Ce                                   
   1.00000000000000     
    21.6439990997000002    0.0000000000000000    0.0000000000000000
     0.0000000000000000   21.6439990997000002    0.0000000000000000
     0.0000000000000000    0.0000000000000000   21.6439990997000002
   O    Ce
     9     4
Direct
  0.6744120333534223  0.0965712605611099  0.0607996372414644
  0.5474235493852531  0.0215293369997209  0.1786306214360106
  0.5638243605134651  0.1349946447094230  0.1130331917442779
  0.6619002083481847  0.2186595336067950  0.0271371404017124
  0.4063256055277791  0.0927873229392623  0.1112753479276519
  0.7039696278129087  0.1427292286920100  0.1754045940325092
  0.5742793308550657 -0.0007004833634906  0.1199487508050060
  0.8210438061267158  0.1671001603787944  0.0532410715489765
  0.5244924655182104  0.0929993743486809  0.0004029343173632
  0.7414986220025419  0.1792023169637189  0.0837999697236217
  0.4845823334610160  0.0619202024637613  0.0946913055024239
  0.6369464900421418  0.0789314389281738  0.1541674355787330
  0.5968015671517704  0.1507756627342178  0.0149679997451519
 
  0.00000000E+00  0.00000000E+00  0.00000000E+00
  0.00000000E+00  0.00000000E+00  0.00000000E+00
  0.00000000E+00  0.00000000E+00  0.00000000E+00
  0.00000000E+00  0.00000000E+00  0.00000000E+00
  0.00000000E+00  0.00000000E+00  0.00000000E+00
  0.00000000E+00  0.00000000E+00  0.00000000E+00
  0.00000000E+00  0.00000000E+00  0.00000000E+00
  0.00000000E+00  0.00000000E+00  0.00000000E+00
  0.00000000E+00  0.00000000E+00  0.00000000E+00
  0.00000000E+00  0.00000000E+00  0.00000000E+00
  0.00000000E+00  0.00000000E+00  0.00000000E+00
  0.00000000E+00  0.00000000E+00  0.00000000E+00
  0.00000000E+00  0.00000000E+00  0.00000000E+00
