O  Ce                                   
   1.00000000000000     
    21.6439990997000002    0.0000000000000000    0.0000000000000000
     0.0000000000000000   21.6439990997000002    0.0000000000000000
     0.0000000000000000    0.0000000000000000   21.6439990997000002
   O    Ce
     9     5
Direct
  0.1930553120807726  0.1673409240202926  0.0252200613827079
  0.1165132042309009  0.1800385128475476  0.1420325825227205
  0.1975642330884655  0.0471580257516857  0.1367793362541357
  0.2463004213890814  0.1726726606464845  0.1472346672688064
  0.1986081334004890  0.1602543531478873  0.2724784029691380
  0.2818276559662758  0.2681239997662787  0.0661263973570358
  0.3469582583918802  0.2407863811487100  0.2051067685024533
  0.3462176340111396  0.1272107083032943  0.0692878680031776
  0.1945445636633268  0.2925001873986901  0.1739451338909082
  0.3446958010597664  0.2137338174817076  0.1122988949307117
  0.2505394170278703  0.2450732243157455  0.2428069557638276
  0.1839865068752892  0.2407879005998252  0.0904920688914399
  0.2496424171793397  0.0912513493765866  0.0586489826705545
  0.1620464416004509  0.1155679551961310  0.1950418795614886
 
  0.00000000E+00  0.00000000E+00  0.00000000E+00
  0.00000000E+00  0.00000000E+00  0.00000000E+00
  0.00000000E+00  0.00000000E+00  0.00000000E+00
  0.00000000E+00  0.00000000E+00  0.00000000E+00
  0.00000000E+00  0.00000000E+00  0.00000000E+00
  0.00000000E+00  0.00000000E+00  0.00000000E+00
  0.00000000E+00  0.00000000E+00  0.00000000E+00
  0.00000000E+00  0.00000000E+00  0.00000000E+00
  0.00000000E+00  0.00000000E+00  0.00000000E+00
  0.00000000E+00  0.00000000E+00  0.00000000E+00
  0.00000000E+00  0.00000000E+00  0.00000000E+00
  0.00000000E+00  0.00000000E+00  0.00000000E+00
  0.00000000E+00  0.00000000E+00  0.00000000E+00
  0.00000000E+00  0.00000000E+00  0.00000000E+00
