O  Ce                                   
   1.00000000000000     
    21.6439990997000002    0.0000000000000000    0.0000000000000000
     0.0000000000000000   21.6439990997000002    0.0000000000000000
     0.0000000000000000    0.0000000000000000   21.6439990997000002
   O    Ce
     9     5
Direct
  0.8257875828981974  0.9363020850996258  0.1227468281467182
  0.7953453909777873  0.6914026915657699  0.1094715388386656
  0.9185718211562571  0.8408004950654641  0.1124368881009820
  0.8441538889066570  0.7782084877889300  0.0258697639242355
  0.8871176948461712  0.7680728494224300  0.2151806694066898
  0.7636564320948523  0.8952516041849873  0.2290423880440919
  0.7518703755464567  0.8735400414174287  0.0360512538725087
  0.8003209412727990  0.8170312762479461  0.1334655681261239
  0.6726477379394583  0.8178218625614758  0.1224967094371226
  0.7372449873692589  0.7637611729710985  0.0596812947165882
  0.8629560092100147  0.8696249603382118  0.2079978146480046
  0.8761144078985399  0.7401181814622799  0.1241365313028104
  0.8509741005596217  0.8754146851629944  0.0480148150940392
  0.7257386294460710  0.8951496067907536  0.1409079363070577
 
  0.00000000E+00  0.00000000E+00  0.00000000E+00
  0.00000000E+00  0.00000000E+00  0.00000000E+00
  0.00000000E+00  0.00000000E+00  0.00000000E+00
  0.00000000E+00  0.00000000E+00  0.00000000E+00
  0.00000000E+00  0.00000000E+00  0.00000000E+00
  0.00000000E+00  0.00000000E+00  0.00000000E+00
  0.00000000E+00  0.00000000E+00  0.00000000E+00
  0.00000000E+00  0.00000000E+00  0.00000000E+00
  0.00000000E+00  0.00000000E+00  0.00000000E+00
  0.00000000E+00  0.00000000E+00  0.00000000E+00
  0.00000000E+00  0.00000000E+00  0.00000000E+00
  0.00000000E+00  0.00000000E+00  0.00000000E+00
  0.00000000E+00  0.00000000E+00  0.00000000E+00
  0.00000000E+00  0.00000000E+00  0.00000000E+00
