O  Ce                                   
   1.00000000000000     
    21.6439990997000002    0.0000000000000000    0.0000000000000000
     0.0000000000000000   21.6439990997000002    0.0000000000000000
     0.0000000000000000    0.0000000000000000   21.6439990997000002
   O    Ce
    10     5
Direct
  0.1413692928818848  0.1601597253930555  0.5418443385758855
  0.3425812940880653  0.3648829729859224  0.5650214564276703
  0.3524550425986026  0.3136980574361836  0.3800269056838185
  0.3028277287677064  0.2800359774238361  0.4891654959234304
  0.4234790568957227  0.2783928971272593  0.5198654271437133
  0.2271550086935120  0.2130278826000976  0.4091034977725883
  0.1859690636909270  0.3146183888088289  0.4791760565102267
  0.2858585699132470  0.3936345856723178  0.4524787808957816
  0.3052458218953454  0.1744796251574779  0.5632005015006319
  0.2455045812188226  0.2848330261353820  0.5969449923793128
  0.3471039533076524  0.2543850324014625  0.5823246233624512
  0.2440323284888539  0.3648882568176072  0.5403076093676754
  0.2534792857768605  0.3006647585522951  0.3974730559016339
  0.3820501159203053  0.3478655836314756  0.4661431892175931
  0.2108888558751895  0.2044332298695028  0.5169240693953467
 
  0.00000000E+00  0.00000000E+00  0.00000000E+00
  0.00000000E+00  0.00000000E+00  0.00000000E+00
  0.00000000E+00  0.00000000E+00  0.00000000E+00
  0.00000000E+00  0.00000000E+00  0.00000000E+00
  0.00000000E+00  0.00000000E+00  0.00000000E+00
  0.00000000E+00  0.00000000E+00  0.00000000E+00
  0.00000000E+00  0.00000000E+00  0.00000000E+00
  0.00000000E+00  0.00000000E+00  0.00000000E+00
  0.00000000E+00  0.00000000E+00  0.00000000E+00
  0.00000000E+00  0.00000000E+00  0.00000000E+00
  0.00000000E+00  0.00000000E+00  0.00000000E+00
  0.00000000E+00  0.00000000E+00  0.00000000E+00
  0.00000000E+00  0.00000000E+00  0.00000000E+00
  0.00000000E+00  0.00000000E+00  0.00000000E+00
  0.00000000E+00  0.00000000E+00  0.00000000E+00
