O  Ce                                   
   1.00000000000000     
    21.6439990997000002    0.0000000000000000    0.0000000000000000
     0.0000000000000000   21.6439990997000002    0.0000000000000000
     0.0000000000000000    0.0000000000000000   21.6439990997000002
   O    Ce
    11     5
Direct
  0.5670414076592769  0.3742982670588139  0.3324627141035212
  0.7034506370598386  0.4517617146498076  0.3054266089165928
  0.6837945948963620  0.4159180098196288  0.1855248904650094
  0.7345641950063020  0.3224271585431033  0.5848914780273248
  0.6499508953740470  0.2513663847475441  0.4553944941232430
  0.8352799371091777  0.4332251097284993  0.3032735447076044
  0.7721312932804902  0.5527452002319493  0.1977560646337571
  0.8010731762320294  0.3235472376095100  0.4271691353582520
  0.6847133071771699  0.3717402092410954  0.4399748110149886
  0.8126929487760902  0.3791140799087000  0.2684028882820566
  0.6805821507411557  0.3244129066602378  0.3186051563775288
  0.6135632518214184  0.3151301321618941  0.3974558389973095
  0.6325452752807911  0.3961640203819962  0.2601410042090873
  0.7709770860566736  0.4701394898730080  0.2211926399970662
  0.7347262079020844  0.2986831781738642  0.5020580774763638
  0.7604136357740756  0.3818269013059226  0.3627706533527417
 
  0.00000000E+00  0.00000000E+00  0.00000000E+00
  0.00000000E+00  0.00000000E+00  0.00000000E+00
  0.00000000E+00  0.00000000E+00  0.00000000E+00
  0.00000000E+00  0.00000000E+00  0.00000000E+00
  0.00000000E+00  0.00000000E+00  0.00000000E+00
  0.00000000E+00  0.00000000E+00  0.00000000E+00
  0.00000000E+00  0.00000000E+00  0.00000000E+00
  0.00000000E+00  0.00000000E+00  0.00000000E+00
  0.00000000E+00  0.00000000E+00  0.00000000E+00
  0.00000000E+00  0.00000000E+00  0.00000000E+00
  0.00000000E+00  0.00000000E+00  0.00000000E+00
  0.00000000E+00  0.00000000E+00  0.00000000E+00
  0.00000000E+00  0.00000000E+00  0.00000000E+00
  0.00000000E+00  0.00000000E+00  0.00000000E+00
  0.00000000E+00  0.00000000E+00  0.00000000E+00
  0.00000000E+00  0.00000000E+00  0.00000000E+00
