Ce6O12                                  
   1.00000000000000     
    21.6439990997000002    0.0000000000000000    0.0000000000000000
     0.0000000000000000   21.6439990997000002    0.0000000000000000
     0.0000000000000000    0.0000000000000000   21.6439990997000002
   O    Ce
    12     6
Direct
  0.6810765175571567  0.1314178692629975  0.2134516377594859
  0.7171731440091264  0.0620667819858751  0.3145476439792542
  0.5895024714246695  0.3101009278163404  0.2415436243057304
  0.5252748291176437  0.1026971719400644  0.3411393883494664
  0.4528368301170875  0.2221726252794307  0.2574337789716376
  0.6116921460542918  0.2298842486274205  0.1490031852058919
  0.4992707033187883  0.1616029857805748  0.1600876791640325
  0.5728742198854100  0.1860796109453574  0.2591120032223831
  0.5612674477052659  0.0664408674411770  0.2275531364389798
  0.6179991118647215  0.0789978436654744  0.0662429983363288
  0.6842044900487023  0.1826879696090311  0.3234695378823063
  0.7670544766395299  0.2225214636355174  0.2380083299120749
  0.5993498898302628  0.1207823350448008  0.1397447552798704
  0.4806800938089217  0.1274618715028752  0.2573171438533803
  0.7628435580291404  0.1355304179102872  0.2754707140928098
  0.5210262432955413  0.2575322511039547  0.1948489527962359
  0.6194628135564688  0.1001009326187922  0.3059807911746431
  0.6633910137372711  0.2422618258300279  0.2378646992754840
 
  0.00000000E+00  0.00000000E+00  0.00000000E+00
  0.00000000E+00  0.00000000E+00  0.00000000E+00
  0.00000000E+00  0.00000000E+00  0.00000000E+00
  0.00000000E+00  0.00000000E+00  0.00000000E+00
  0.00000000E+00  0.00000000E+00  0.00000000E+00
  0.00000000E+00  0.00000000E+00  0.00000000E+00
  0.00000000E+00  0.00000000E+00  0.00000000E+00
  0.00000000E+00  0.00000000E+00  0.00000000E+00
  0.00000000E+00  0.00000000E+00  0.00000000E+00
  0.00000000E+00  0.00000000E+00  0.00000000E+00
  0.00000000E+00  0.00000000E+00  0.00000000E+00
  0.00000000E+00  0.00000000E+00  0.00000000E+00
  0.00000000E+00  0.00000000E+00  0.00000000E+00
  0.00000000E+00  0.00000000E+00  0.00000000E+00
  0.00000000E+00  0.00000000E+00  0.00000000E+00
  0.00000000E+00  0.00000000E+00  0.00000000E+00
  0.00000000E+00  0.00000000E+00  0.00000000E+00
  0.00000000E+00  0.00000000E+00  0.00000000E+00
