 O Ce                                   
   1.00000000000000     
    21.6439990997000002    0.0000000000000000    0.0000000000000000
     0.0000000000000000   21.6439990997000002    0.0000000000000000
     0.0000000000000000    0.0000000000000000   21.6439990997000002
   O    Ce
    11     6
Direct
  0.0789557877845234  0.3440579150837031  0.9351752537006832
  0.1597426538864920  0.2689460651685573  0.6656055284472393
  0.0268440274532843  0.3241346829426788  0.8138117409723048
  0.1179876524518490  0.1053647114971201  0.7171922635077305
  0.1170670198096535  0.1417307271798351  0.8712655392599019
  0.1519870299906733  0.3237296327178096  0.8303833018407569
  0.0917592379028328  0.2229382212171366  0.7698055921563146
  0.9992533344786385  0.1595022254115859  0.7188412294413595
  0.1027149476985409  0.4212709704196210  0.7682946410209470
  0.0303592936309513  0.2846759393230862  0.6839796452415511
  0.9993718180324971  0.1934960990451153  0.8445951290318160
  0.0916204383544078  0.2458163007729197  0.8808463309226349
  0.0878429473278678  0.3975571203746429  0.8603876477373271
  0.0649949756786286  0.1182427065568871  0.7963067574462642
  0.1175371421978112  0.3246133035473578  0.7313132653599922
  0.0921243308097841  0.1889197672726084  0.6616950305738596
  0.9823373625413077  0.2475036114482601  0.7630011033967926
 
  0.00000000E+00  0.00000000E+00  0.00000000E+00
  0.00000000E+00  0.00000000E+00  0.00000000E+00
  0.00000000E+00  0.00000000E+00  0.00000000E+00
  0.00000000E+00  0.00000000E+00  0.00000000E+00
  0.00000000E+00  0.00000000E+00  0.00000000E+00
  0.00000000E+00  0.00000000E+00  0.00000000E+00
  0.00000000E+00  0.00000000E+00  0.00000000E+00
  0.00000000E+00  0.00000000E+00  0.00000000E+00
  0.00000000E+00  0.00000000E+00  0.00000000E+00
  0.00000000E+00  0.00000000E+00  0.00000000E+00
  0.00000000E+00  0.00000000E+00  0.00000000E+00
  0.00000000E+00  0.00000000E+00  0.00000000E+00
  0.00000000E+00  0.00000000E+00  0.00000000E+00
  0.00000000E+00  0.00000000E+00  0.00000000E+00
  0.00000000E+00  0.00000000E+00  0.00000000E+00
  0.00000000E+00  0.00000000E+00  0.00000000E+00
  0.00000000E+00  0.00000000E+00  0.00000000E+00
