O Ce                                    
   1.00000000000000     
    21.6439990999999985    0.0000000000000000    0.0000000000000000
     0.0000000000000000   21.6439990999999985    0.0000000000000000
     0.0000000000000000    0.0000000000000000   21.6439990999999985
   O    Ce
    12     6
Direct
  0.7014217730554794  0.1291052949176651  0.2154284379200982
  0.5075710003528141  0.0483634560730866  0.4728129674528586
  0.5900390858697521  0.2851263847335420  0.2498928021654998
  0.5346232757506673  0.1203392152958205  0.3280226838247339
  0.4772734417882964  0.2183906795263097  0.2600588205907801
  0.6191651869592889  0.2459475663333709  0.1346490012367834
  0.4796084844224103  0.1664170898738525  0.1460060555706463
  0.5558849533363317  0.2020511048862996  0.4235045633066698
  0.5520551837061481  0.0438760320928720  0.2281598715234649
  0.5791529972141949  0.1656152424321993  0.2201820368189084
  0.6510794078803390  0.1894009965942537  0.3134369767115645
  0.6392138907855067  0.0557542906097633  0.3703668552059670
  0.5563219135491629  0.2252995093920111  0.3305105089875326
  0.4883406727685561  0.1143590873015154  0.2305336539239890
  0.5642367567627876  0.0975750824841042  0.4298403719273780
  0.5286974078658836  0.2474643220704157  0.1722048077704565
  0.6329677775585273  0.0849754849110470  0.2796306177666407
  0.6709001675545073  0.2199092479775657  0.2162995568075029
 
  0.00000000E+00  0.00000000E+00  0.00000000E+00
  0.00000000E+00  0.00000000E+00  0.00000000E+00
  0.00000000E+00  0.00000000E+00  0.00000000E+00
  0.00000000E+00  0.00000000E+00  0.00000000E+00
  0.00000000E+00  0.00000000E+00  0.00000000E+00
  0.00000000E+00  0.00000000E+00  0.00000000E+00
  0.00000000E+00  0.00000000E+00  0.00000000E+00
  0.00000000E+00  0.00000000E+00  0.00000000E+00
  0.00000000E+00  0.00000000E+00  0.00000000E+00
  0.00000000E+00  0.00000000E+00  0.00000000E+00
  0.00000000E+00  0.00000000E+00  0.00000000E+00
  0.00000000E+00  0.00000000E+00  0.00000000E+00
  0.00000000E+00  0.00000000E+00  0.00000000E+00
  0.00000000E+00  0.00000000E+00  0.00000000E+00
  0.00000000E+00  0.00000000E+00  0.00000000E+00
  0.00000000E+00  0.00000000E+00  0.00000000E+00
  0.00000000E+00  0.00000000E+00  0.00000000E+00
  0.00000000E+00  0.00000000E+00  0.00000000E+00
