O Ce                                    
   1.00000000000000     
    21.6439990999999985    0.0000000000000000    0.0000000000000000
     0.0000000000000000   21.6439990999999985    0.0000000000000000
     0.0000000000000000    0.0000000000000000   21.6439990999999985
   O    Ce
    13     6
Direct
  0.3838898019706083  0.6166320665552022  0.6498358885334323
  0.2777226413967268  0.7511192139674503  0.7476534999951127
  0.2934581467700490  0.8620080081785867  0.6212708585762342
  0.5557132187011506  0.7230281336368585  0.6555879000572392
  0.4343045662058213  0.7244880796675266  0.6142976098845175
  0.3151635769799311  0.7203650473062466  0.6128474660698224
  0.2548816140199981  0.9255277017111362  0.7813952637704358
  0.3727586907230798  0.7449936295508891  0.5035935554972820
  0.4611049574115909  0.8462793052904084  0.6072365180255229
  0.3800703194948906  0.8036629443594641  0.6958579808349397
  0.4531983159360108  0.7002264235817551  0.7319367575474378
  0.3159935637066284  0.9187733383360379  0.7876913062733465
  0.4631370742292624  0.6192129096422110  0.5478921547761127
  0.3763600476138362  0.6583900166263851  0.5509183898762755
  0.2862064868753268  0.8409061963733560  0.7149916867998628
  0.4894695635125645  0.7865176737824239  0.6795683098371428
  0.4956760182467413  0.6373272056541380  0.6455892591648140
  0.3559173085850562  0.6978838050401288  0.7036224303350341
  0.3712717499136622  0.8091355206543134  0.5801255273278967
 
  0.00000000E+00  0.00000000E+00  0.00000000E+00
  0.00000000E+00  0.00000000E+00  0.00000000E+00
  0.00000000E+00  0.00000000E+00  0.00000000E+00
  0.00000000E+00  0.00000000E+00  0.00000000E+00
  0.00000000E+00  0.00000000E+00  0.00000000E+00
  0.00000000E+00  0.00000000E+00  0.00000000E+00
  0.00000000E+00  0.00000000E+00  0.00000000E+00
  0.00000000E+00  0.00000000E+00  0.00000000E+00
  0.00000000E+00  0.00000000E+00  0.00000000E+00
  0.00000000E+00  0.00000000E+00  0.00000000E+00
  0.00000000E+00  0.00000000E+00  0.00000000E+00
  0.00000000E+00  0.00000000E+00  0.00000000E+00
  0.00000000E+00  0.00000000E+00  0.00000000E+00
  0.00000000E+00  0.00000000E+00  0.00000000E+00
  0.00000000E+00  0.00000000E+00  0.00000000E+00
  0.00000000E+00  0.00000000E+00  0.00000000E+00
  0.00000000E+00  0.00000000E+00  0.00000000E+00
  0.00000000E+00  0.00000000E+00  0.00000000E+00
  0.00000000E+00  0.00000000E+00  0.00000000E+00
