 O Ce                                   
   1.00000000000000     
    21.6439990997000002    0.0000000000000000    0.0000000000000000
     0.0000000000000000   21.6439990997000002    0.0000000000000000
     0.0000000000000000    0.0000000000000000   21.6439990997000002
   O    Ce
    14     7
Direct
  0.4216131064313630  0.5416176556661828  0.7334752286000299
  0.3098327231098610  0.5884704586225822  0.6104860120752906
  0.4219458030617449  0.5224598397315419  0.4925497537039826
  0.4171973514093732  0.6805289075075341  0.5357424751395145
  0.6871476618880065  0.5660726280514831  0.5553019150150887
  0.6034610197850562  0.4357794943431182  0.5386374719172224
  0.5614344864197297  0.6879609964178790  0.5549342593567924
  0.4825237032925887  0.4640670559324128  0.6088631246969025
  0.4343210586452682  0.5892882301145711  0.6160326786734344
  0.5665755104133654  0.5502199833851678  0.5818586541867874
  0.6058863932917025  0.4915685978996907  0.6881396310043478
  0.3999239905333233  0.6919414873016491  0.6839395775197430
  0.5291703259605377  0.6312200422325244  0.6827281752660640
  0.5598613674440769  0.5548273343534902  0.4590985152738614
  0.6506516069480822  0.4876401467846933  0.6045092093928963
  0.6101998818027434  0.6152697043965142  0.5143619622130625
  0.3620473985152128  0.6042117063129802  0.6938289413627419
  0.3730124545186280  0.5951463930371622  0.5330964704879924
  0.5138217342336096  0.4831803606137829  0.5179323628136919
  0.5096256644491476  0.5329640656709111  0.6765366502539198
  0.4797467578997066  0.6855649117442530  0.6179469311736933
 
  0.00000000E+00  0.00000000E+00  0.00000000E+00
  0.00000000E+00  0.00000000E+00  0.00000000E+00
  0.00000000E+00  0.00000000E+00  0.00000000E+00
  0.00000000E+00  0.00000000E+00  0.00000000E+00
  0.00000000E+00  0.00000000E+00  0.00000000E+00
  0.00000000E+00  0.00000000E+00  0.00000000E+00
  0.00000000E+00  0.00000000E+00  0.00000000E+00
  0.00000000E+00  0.00000000E+00  0.00000000E+00
  0.00000000E+00  0.00000000E+00  0.00000000E+00
  0.00000000E+00  0.00000000E+00  0.00000000E+00
  0.00000000E+00  0.00000000E+00  0.00000000E+00
  0.00000000E+00  0.00000000E+00  0.00000000E+00
  0.00000000E+00  0.00000000E+00  0.00000000E+00
  0.00000000E+00  0.00000000E+00  0.00000000E+00
  0.00000000E+00  0.00000000E+00  0.00000000E+00
  0.00000000E+00  0.00000000E+00  0.00000000E+00
  0.00000000E+00  0.00000000E+00  0.00000000E+00
  0.00000000E+00  0.00000000E+00  0.00000000E+00
  0.00000000E+00  0.00000000E+00  0.00000000E+00
  0.00000000E+00  0.00000000E+00  0.00000000E+00
  0.00000000E+00  0.00000000E+00  0.00000000E+00
