 O Ce                                   
   1.00000000000000     
    21.6439990997000002    0.0000000000000000    0.0000000000000000
     0.0000000000000000   21.6439990997000002    0.0000000000000000
     0.0000000000000000    0.0000000000000000   21.6439990997000002
   O    Ce
    13     7
Direct
  0.3056287878007949  0.6998430277714397  0.5683211112434576
  0.4320623225948522  0.6855317085454519  0.5659867149956339
  0.3394634846242938  0.7159570918773314  0.6881970954026303
  0.0715571184619264  0.6252687851039338  0.5855948328377680
  0.3411090951500857  0.6935376706723798  0.4470023633342076
  0.3124605963208522  0.5534489535961912  0.4746512880647468
  0.3419041668048647  0.8197527322541072  0.5524123281692261
  0.3182935774749118  0.5746120634265760  0.5972290593595334
  0.1791892366178660  0.7307895021201961  0.4897361958437357
  0.1983973639006484  0.6203237551997416  0.5843755013945915
  0.2022802768908372  0.6146069153539989  0.7122111140539877
  0.1661060428643069  0.5674532810791050  0.4752995214436332
  0.1792557319599789  0.4937533822234641  0.6049650260613726
  0.1284885716607091  0.5698213815801360  0.6532422672363816
  0.3667419849389968  0.6272906071574579  0.5135444801186994
  0.3833990081525701  0.7577917290954426  0.6110858827218183
  0.2376248477519448  0.5297193289041322  0.5358173578813535
  0.2788877891560196  0.7637061537444096  0.4851696865527778
  0.1295605263050137  0.6502778612353358  0.5115286547837612
  0.2750894705364885  0.6440140691345152  0.6561295185766468
 
  0.00000000E+00  0.00000000E+00  0.00000000E+00
  0.00000000E+00  0.00000000E+00  0.00000000E+00
  0.00000000E+00  0.00000000E+00  0.00000000E+00
  0.00000000E+00  0.00000000E+00  0.00000000E+00
  0.00000000E+00  0.00000000E+00  0.00000000E+00
  0.00000000E+00  0.00000000E+00  0.00000000E+00
  0.00000000E+00  0.00000000E+00  0.00000000E+00
  0.00000000E+00  0.00000000E+00  0.00000000E+00
  0.00000000E+00  0.00000000E+00  0.00000000E+00
  0.00000000E+00  0.00000000E+00  0.00000000E+00
  0.00000000E+00  0.00000000E+00  0.00000000E+00
  0.00000000E+00  0.00000000E+00  0.00000000E+00
  0.00000000E+00  0.00000000E+00  0.00000000E+00
  0.00000000E+00  0.00000000E+00  0.00000000E+00
  0.00000000E+00  0.00000000E+00  0.00000000E+00
  0.00000000E+00  0.00000000E+00  0.00000000E+00
  0.00000000E+00  0.00000000E+00  0.00000000E+00
  0.00000000E+00  0.00000000E+00  0.00000000E+00
  0.00000000E+00  0.00000000E+00  0.00000000E+00
  0.00000000E+00  0.00000000E+00  0.00000000E+00
