O Ce                                    
   1.00000000000000     
    21.6439990999999985    0.0000000000000000    0.0000000000000000
     0.0000000000000000   21.6439990999999985    0.0000000000000000
     0.0000000000000000    0.0000000000000000   21.6439990999999985
   O    Ce
    15     7
Direct
  0.3999555428795495  0.9261743817956282  0.4170727505236729
  0.4961500125911257  0.8571700787326691  0.4601838425921177
  0.5920933616258681  0.9084284823616883  0.3884030814019436
  0.4692857178856134  0.6709879657801489  0.5263769407859886
  0.5458496908522441  0.7323339584758783  0.3070057591510572
  0.4640122530621921  0.7457860460791430  0.4065285422798253
  0.3829944763472943  0.8171759563954641  0.4862559885908500
  0.4869463077976192  0.9792689218124713  0.4912592485579905
  0.5849481894431152  0.5524386645988241  0.4977297155511514
  0.4811521599481339  0.8644228548408327  0.3380927621475966
  0.5655806122868041  0.7350407069488133  0.4737442730323200
  0.6263926012198692  0.5827413427648582  0.4636197149418132
  0.4605777232239877  0.8486049165792668  0.5817633446417119
  0.3830388744129785  0.7565785933779072  0.3125906217782397
  0.4835673047425364  0.6178472239907696  0.3748443745106383
  0.4597231485952125  0.6945424899153583  0.3160714097152946
  0.5311054607202258  0.6403904255765857  0.4578507050940337
  0.5074365639140055  0.9462363393010848  0.3981116346783163
  0.4220662638711828  0.9124905025685882  0.5192013795783944
  0.4735242693331910  0.7705361145289192  0.5188721600830937
  0.3998320117092850  0.8272175293685425  0.3837149103769311
  0.5654824647902118  0.8029838184949277  0.3847587044134758
 
  0.00000000E+00  0.00000000E+00  0.00000000E+00
  0.00000000E+00  0.00000000E+00  0.00000000E+00
  0.00000000E+00  0.00000000E+00  0.00000000E+00
  0.00000000E+00  0.00000000E+00  0.00000000E+00
  0.00000000E+00  0.00000000E+00  0.00000000E+00
  0.00000000E+00  0.00000000E+00  0.00000000E+00
  0.00000000E+00  0.00000000E+00  0.00000000E+00
  0.00000000E+00  0.00000000E+00  0.00000000E+00
  0.00000000E+00  0.00000000E+00  0.00000000E+00
  0.00000000E+00  0.00000000E+00  0.00000000E+00
  0.00000000E+00  0.00000000E+00  0.00000000E+00
  0.00000000E+00  0.00000000E+00  0.00000000E+00
  0.00000000E+00  0.00000000E+00  0.00000000E+00
  0.00000000E+00  0.00000000E+00  0.00000000E+00
  0.00000000E+00  0.00000000E+00  0.00000000E+00
  0.00000000E+00  0.00000000E+00  0.00000000E+00
  0.00000000E+00  0.00000000E+00  0.00000000E+00
  0.00000000E+00  0.00000000E+00  0.00000000E+00
  0.00000000E+00  0.00000000E+00  0.00000000E+00
  0.00000000E+00  0.00000000E+00  0.00000000E+00
  0.00000000E+00  0.00000000E+00  0.00000000E+00
  0.00000000E+00  0.00000000E+00  0.00000000E+00
