 O Ce                                   
   1.00000000000000     
    21.6439990997000002    0.0000000000000000    0.0000000000000000
     0.0000000000000000   21.6439990997000002    0.0000000000000000
     0.0000000000000000    0.0000000000000000   21.6439990997000002
   O    Ce
    16     8
Direct
  0.3509632955990405  0.2930734141664148  0.2175132092939374
  0.3336653648182229  0.3474345353343535  0.0947627426319320
  0.3012956829861004  0.2210407615125862  0.0767011362023210
  0.2657457807904905  0.1600179212083336  0.2292827245512472
  0.2144636904193552  0.3187216660199503  0.1570172108126614
  0.3952692160991315  0.3234553831988060  0.9828476422779725
  0.2776379969126909  0.4432844419911411  0.0377806406482014
  0.4030940619047727  0.0554232800876708  0.1946243844129580
  0.4653362557953678  0.3411779466996809  0.2424875489483678
  0.5079964014932348  0.1709244705152936  0.1871315038041233
  0.4276781948821871  0.4336634958048779  0.0890912536238081
  0.4059484935654668  0.1768452408719107  0.2972307471169869
  0.3151916077077651  0.4322278617838390  0.1885580862491500
  0.4392044440143918  0.1598396611570242  0.0485712070553777
  0.3811930546284972  0.1762444929997791  0.1719011548552430
  0.4434824429423073  0.2886725430154869  0.1293211030083691
  0.4473285627568758  0.2441348426398294  0.2291851678892884
  0.4556032070615076  0.1137871877156007  0.1321931493479297
  0.2502923632928459  0.4031324572592054  0.1255863220096645
  0.3488998150543518  0.1155167040757602  0.2521259544994607
  0.4034632430539308  0.3791536872211177  0.1746037132234173
  0.2799142356401230  0.2417886352171606  0.1703750659546913
  0.3691822741913667  0.4102494344989176  0.0178455370038466
  0.3921503144436998  0.2501899349567508  0.0532627945351540
 
  0.00000000E+00  0.00000000E+00  0.00000000E+00
  0.00000000E+00  0.00000000E+00  0.00000000E+00
  0.00000000E+00  0.00000000E+00  0.00000000E+00
  0.00000000E+00  0.00000000E+00  0.00000000E+00
  0.00000000E+00  0.00000000E+00  0.00000000E+00
  0.00000000E+00  0.00000000E+00  0.00000000E+00
  0.00000000E+00  0.00000000E+00  0.00000000E+00
  0.00000000E+00  0.00000000E+00  0.00000000E+00
  0.00000000E+00  0.00000000E+00  0.00000000E+00
  0.00000000E+00  0.00000000E+00  0.00000000E+00
  0.00000000E+00  0.00000000E+00  0.00000000E+00
  0.00000000E+00  0.00000000E+00  0.00000000E+00
  0.00000000E+00  0.00000000E+00  0.00000000E+00
  0.00000000E+00  0.00000000E+00  0.00000000E+00
  0.00000000E+00  0.00000000E+00  0.00000000E+00
  0.00000000E+00  0.00000000E+00  0.00000000E+00
  0.00000000E+00  0.00000000E+00  0.00000000E+00
  0.00000000E+00  0.00000000E+00  0.00000000E+00
  0.00000000E+00  0.00000000E+00  0.00000000E+00
  0.00000000E+00  0.00000000E+00  0.00000000E+00
  0.00000000E+00  0.00000000E+00  0.00000000E+00
  0.00000000E+00  0.00000000E+00  0.00000000E+00
  0.00000000E+00  0.00000000E+00  0.00000000E+00
  0.00000000E+00  0.00000000E+00  0.00000000E+00
