 O Ce                                   
   1.00000000000000     
    21.6439990997000002    0.0000000000000000    0.0000000000000000
     0.0000000000000000   21.6439990997000002    0.0000000000000000
     0.0000000000000000    0.0000000000000000   21.6439990997000002
   O    Ce
    15     8
Direct
  0.1849244460452282  0.5134454238755142  0.5605402212068907
  0.3281841478600656  0.2784551373242695  0.5579650194003269
  0.3113785232378605  0.4399057758330806  0.4380254401090942
  0.2743022548646731  0.3036649925030775  0.7954445541404569
  0.3605960032649788  0.2188633593055330  0.7037234613652976
  0.2143703346768244  0.2093556226553266  0.6516952912033985
  0.1920590568579293  0.4099702728261084  0.7257920478122093
  0.2806166062048465  0.4256589598712827  0.5628969109806952
  0.2798638158676068  0.3166027575146629  0.6702706591089275
  0.2376369251778968  0.3162645117096929  0.4872389014363824
  0.3506165281726007  0.5366639549805807  0.5585415569797323
  0.2844730381200713  0.4736247644504025  0.6795441761442450
  0.4009159266134180  0.3854071479038552  0.5644818890397980
  0.3793145349623854  0.3923944917700655  0.6984652486643316
  0.1631582026853546  0.3556050566707131  0.5995300651509977
  0.3656044476249662  0.4630957966686461  0.6194879912066862
  0.3259431410184017  0.3606125327244085  0.4902358123591883
  0.2239487633376002  0.2820622273470945  0.5799126737264724
  0.2835413041313570  0.3906299627306538  0.7468559958355542
  0.2704785911329778  0.2293992667921952  0.7294893687667382
  0.2698711827192730  0.5145056969164786  0.4984820557370553
  0.3873322363358733  0.3009399762845179  0.6403789322103357
  0.1933699890517155  0.4453723114258619  0.6285017275540969
 
  0.00000000E+00  0.00000000E+00  0.00000000E+00
  0.00000000E+00  0.00000000E+00  0.00000000E+00
  0.00000000E+00  0.00000000E+00  0.00000000E+00
  0.00000000E+00  0.00000000E+00  0.00000000E+00
  0.00000000E+00  0.00000000E+00  0.00000000E+00
  0.00000000E+00  0.00000000E+00  0.00000000E+00
  0.00000000E+00  0.00000000E+00  0.00000000E+00
  0.00000000E+00  0.00000000E+00  0.00000000E+00
  0.00000000E+00  0.00000000E+00  0.00000000E+00
  0.00000000E+00  0.00000000E+00  0.00000000E+00
  0.00000000E+00  0.00000000E+00  0.00000000E+00
  0.00000000E+00  0.00000000E+00  0.00000000E+00
  0.00000000E+00  0.00000000E+00  0.00000000E+00
  0.00000000E+00  0.00000000E+00  0.00000000E+00
  0.00000000E+00  0.00000000E+00  0.00000000E+00
  0.00000000E+00  0.00000000E+00  0.00000000E+00
  0.00000000E+00  0.00000000E+00  0.00000000E+00
  0.00000000E+00  0.00000000E+00  0.00000000E+00
  0.00000000E+00  0.00000000E+00  0.00000000E+00
  0.00000000E+00  0.00000000E+00  0.00000000E+00
  0.00000000E+00  0.00000000E+00  0.00000000E+00
  0.00000000E+00  0.00000000E+00  0.00000000E+00
  0.00000000E+00  0.00000000E+00  0.00000000E+00
