 O Ce                                   
   1.00000000000000     
    21.6439990997000002    0.0000000000000000    0.0000000000000000
     0.0000000000000000   21.6439990997000002    0.0000000000000000
     0.0000000000000000    0.0000000000000000   21.6439990997000002
   O    Ce
    16     8
Direct
  0.8872924037001092  0.6173654332203873  0.2107596126732391
  0.8162215035962271  0.4701884810459751  0.2972679065759254
  0.8554356781685150  0.5123472255073597  0.1519306133378657
  0.7978669320108694  0.5585641061703275  0.4277817545510054
  0.7424999077795126  0.7479040763366007  0.1818911197590858
  0.8890354125874911  0.6562269868992621  0.0931113124514169
  0.8929629495047349  0.7670890632537357  0.2181888694041058
  0.9659033935026883  0.6842562785801073  0.3156241931811268
  0.9959706633771593  0.5622967184439299  0.1979241236806359
  0.6997117711921513  0.7019436636310882  0.3409573079354501
  0.8571669727554849  0.5849378635082606  0.3221786576818004
  0.8455161876454274  0.7156635904267030  0.3944097889696024
  0.8074622761940368  0.6955450689381882  0.2762604367240931
  0.7301713874454632  0.5921749541957868  0.2923266257799231
  0.7613352670163787  0.6255907293230705  0.1766559315729606
  0.9535534499852855  0.5169792627697298  0.3547482165340015
  0.7046287892048280  0.6841613219859346  0.2451895352625653
  0.8583788453823992  0.5003512954953734  0.3786665323064266
  0.8028605623333203  0.5486156710825834  0.2323344283108680
  0.8881724811511273  0.7464851403384679  0.3128353259311595
  0.7776438397132427  0.6435509501661464  0.3727161146666471
  0.8335398105297651  0.7035254984236338  0.1660609146255898
  0.9263824293476021  0.5732206253201132  0.1277843847177766
  0.9602870860182464  0.5910159950989322  0.2873962933395861
 
  0.00000000E+00  0.00000000E+00  0.00000000E+00
  0.00000000E+00  0.00000000E+00  0.00000000E+00
  0.00000000E+00  0.00000000E+00  0.00000000E+00
  0.00000000E+00  0.00000000E+00  0.00000000E+00
  0.00000000E+00  0.00000000E+00  0.00000000E+00
  0.00000000E+00  0.00000000E+00  0.00000000E+00
  0.00000000E+00  0.00000000E+00  0.00000000E+00
  0.00000000E+00  0.00000000E+00  0.00000000E+00
  0.00000000E+00  0.00000000E+00  0.00000000E+00
  0.00000000E+00  0.00000000E+00  0.00000000E+00
  0.00000000E+00  0.00000000E+00  0.00000000E+00
  0.00000000E+00  0.00000000E+00  0.00000000E+00
  0.00000000E+00  0.00000000E+00  0.00000000E+00
  0.00000000E+00  0.00000000E+00  0.00000000E+00
  0.00000000E+00  0.00000000E+00  0.00000000E+00
  0.00000000E+00  0.00000000E+00  0.00000000E+00
  0.00000000E+00  0.00000000E+00  0.00000000E+00
  0.00000000E+00  0.00000000E+00  0.00000000E+00
  0.00000000E+00  0.00000000E+00  0.00000000E+00
  0.00000000E+00  0.00000000E+00  0.00000000E+00
  0.00000000E+00  0.00000000E+00  0.00000000E+00
  0.00000000E+00  0.00000000E+00  0.00000000E+00
  0.00000000E+00  0.00000000E+00  0.00000000E+00
  0.00000000E+00  0.00000000E+00  0.00000000E+00
