 O Ce                                   
   1.00000000000000     
    21.6439990997000002    0.0000000000000000    0.0000000000000000
     0.0000000000000000   21.6439990997000002    0.0000000000000000
     0.0000000000000000    0.0000000000000000   21.6439990997000002
   O    Ce
    17     8
Direct
  0.1847764420063191  0.1681856162181143  0.9659743816808717
  0.0679690375958443  0.0737396458114939  0.0479236465341552
  0.0634460886985319  0.0158319636476529  0.1843643580746954
  0.2308689674954574  0.0196404050162827  0.0322602149461051
  0.0118638819776361  0.1993706075322757  0.1152140518680751
  0.1904259755864482  0.0796714441273546  0.1310579185390403
  0.0973313342858710  0.1457333392367453  0.1938586379508383
  0.1575818746863089  0.1852237029541635  0.0845547345004522
  0.3134649611909581  0.0995269869844019  0.1374955504851093
  0.1286737732428049  0.3044977189547035  0.0650542040754097
  0.0038808338906959  0.0365782293867462  0.2077558796498973
  0.2174131955402907  0.1357378766423873  0.2456552594797733
  0.2709385499195226  0.2366356874705570  0.0761560389897279
  0.1838473679599998  0.2452484815562316  0.1980805874946911
  0.2242905162341132  0.9873831458652073  0.2061059600981011
  0.0708758142800951  0.2585886229727364  0.2462227291914187
  0.1189581386364229  0.1054725011981931  0.3119889421419146
  0.1610860706749149  0.0922428442028047  0.0267395320726049
  0.2445922258621176  0.1743564376492717  0.1530869590697556
  0.2690309054889344  0.0152426457918005  0.1234189901198483
  0.0914316577196566  0.2510526538880305  0.1453421046480229
  0.1955150255216065  0.2524148007040802  0.0178786617893432
  0.1521075164960449  0.0542261068113079  0.2324013741776052
  0.1370334323719747  0.1971870347963288  0.2805411294016332
  0.0250964127018056  0.1037115006172164  0.1333681530818394
 
  0.00000000E+00  0.00000000E+00  0.00000000E+00
  0.00000000E+00  0.00000000E+00  0.00000000E+00
  0.00000000E+00  0.00000000E+00  0.00000000E+00
  0.00000000E+00  0.00000000E+00  0.00000000E+00
  0.00000000E+00  0.00000000E+00  0.00000000E+00
  0.00000000E+00  0.00000000E+00  0.00000000E+00
  0.00000000E+00  0.00000000E+00  0.00000000E+00
  0.00000000E+00  0.00000000E+00  0.00000000E+00
  0.00000000E+00  0.00000000E+00  0.00000000E+00
  0.00000000E+00  0.00000000E+00  0.00000000E+00
  0.00000000E+00  0.00000000E+00  0.00000000E+00
  0.00000000E+00  0.00000000E+00  0.00000000E+00
  0.00000000E+00  0.00000000E+00  0.00000000E+00
  0.00000000E+00  0.00000000E+00  0.00000000E+00
  0.00000000E+00  0.00000000E+00  0.00000000E+00
  0.00000000E+00  0.00000000E+00  0.00000000E+00
  0.00000000E+00  0.00000000E+00  0.00000000E+00
  0.00000000E+00  0.00000000E+00  0.00000000E+00
  0.00000000E+00  0.00000000E+00  0.00000000E+00
  0.00000000E+00  0.00000000E+00  0.00000000E+00
  0.00000000E+00  0.00000000E+00  0.00000000E+00
  0.00000000E+00  0.00000000E+00  0.00000000E+00
  0.00000000E+00  0.00000000E+00  0.00000000E+00
  0.00000000E+00  0.00000000E+00  0.00000000E+00
  0.00000000E+00  0.00000000E+00  0.00000000E+00
