 O Ce                                   
   1.00000000000000     
    21.6439990997000002    0.0000000000000000    0.0000000000000000
     0.0000000000000000   21.6439990997000002    0.0000000000000000
     0.0000000000000000    0.0000000000000000   21.6439990997000002
   O    Ce
    17     8
Direct
  0.1899321681597400  0.1686447581579409  0.9671743503015215
  0.0542883135728208  0.1007004991216333  0.0303029072051886
  0.0630562749289323  0.0285781943825164  0.1925334911532696
  0.2341698092091191  0.0247294533687388  0.0302238092159382
  0.0119826266894306  0.1954803649475997  0.1197489778888701
  0.1907284256337753  0.0801653810532776  0.1308018320664595
  0.1004461564127564  0.1476713850898307  0.1937946419784216
  0.1580464153364677  0.1856808888430856  0.0846136444895419
  0.3140410355940793  0.0997879723777752  0.1390177339476816
  0.1283392483607435  0.3047475293213433  0.0663570892155584
  0.2186403426973724  0.1364238661761726  0.2463421612297157
  0.2711968832853586  0.2389451085486079  0.0781156245011366
  0.1850335089218160  0.2461364732914843  0.1984000567216443
  0.2247779315304791  0.9865143832562341  0.2048093036010005
  0.0722385487805748  0.2588787292572252  0.2469551400630993
  0.1184035240884299  0.1084195732556861  0.3129477087658769
  0.0728436165988953  0.0403122480480456  0.0573536674650753
  0.1622180241601630  0.0933521513983275  0.0262280341763676
  0.2450565342004645  0.1745363764852196  0.1538464040388747
  0.2693024456553383  0.0159134304848295  0.1233202784933949
  0.0920224856638132  0.2507365123516624  0.1467148779201112
  0.1964356439251615  0.2536214114978040  0.0193244855161276
  0.1519317811840376  0.0541805175230802  0.2325841613798169
  0.1397143006123705  0.1981118188409660  0.2819116359229243
  0.0297421253438688  0.1013931590068625  0.1372464413418911
 
  0.00000000E+00  0.00000000E+00  0.00000000E+00
  0.00000000E+00  0.00000000E+00  0.00000000E+00
  0.00000000E+00  0.00000000E+00  0.00000000E+00
  0.00000000E+00  0.00000000E+00  0.00000000E+00
  0.00000000E+00  0.00000000E+00  0.00000000E+00
  0.00000000E+00  0.00000000E+00  0.00000000E+00
  0.00000000E+00  0.00000000E+00  0.00000000E+00
  0.00000000E+00  0.00000000E+00  0.00000000E+00
  0.00000000E+00  0.00000000E+00  0.00000000E+00
  0.00000000E+00  0.00000000E+00  0.00000000E+00
  0.00000000E+00  0.00000000E+00  0.00000000E+00
  0.00000000E+00  0.00000000E+00  0.00000000E+00
  0.00000000E+00  0.00000000E+00  0.00000000E+00
  0.00000000E+00  0.00000000E+00  0.00000000E+00
  0.00000000E+00  0.00000000E+00  0.00000000E+00
  0.00000000E+00  0.00000000E+00  0.00000000E+00
  0.00000000E+00  0.00000000E+00  0.00000000E+00
  0.00000000E+00  0.00000000E+00  0.00000000E+00
  0.00000000E+00  0.00000000E+00  0.00000000E+00
  0.00000000E+00  0.00000000E+00  0.00000000E+00
  0.00000000E+00  0.00000000E+00  0.00000000E+00
  0.00000000E+00  0.00000000E+00  0.00000000E+00
  0.00000000E+00  0.00000000E+00  0.00000000E+00
  0.00000000E+00  0.00000000E+00  0.00000000E+00
  0.00000000E+00  0.00000000E+00  0.00000000E+00
