Ce9O18-b                                
   1.00000000000000     
    21.6439990997000002    0.0000000000000000    0.0000000000000000
     0.0000000000000000   21.6439990997000002    0.0000000000000000
     0.0000000000000000    0.0000000000000000   21.6439990997000002
   O    Ce
    18     9
Direct
  0.4577590736052302  0.8333788634364939  0.5255434301822295
  0.6993002281983942  0.6553646673483861  0.5802463463709711
  0.6214550780779697  0.8224425673354159  0.5368759598126150
  0.6093788888023282  0.7188180617376893  0.4741341403999778
  0.6907363287726394  0.7832189413592556  0.6372669697587339
  0.4720075407315248  0.6786474656257571  0.5335344755006585
  0.5317692377311870  0.8082055186931097  0.6185994381081221
  0.4470491299520926  0.8363976104539363  0.6990486474801862
  0.6078734887117230  0.8335352362489220  0.7220495224858245
  0.7742424806418192  0.8197066984706781  0.7236633916919757
  0.5739472100457349  0.6946991898883493  0.6062581714083423
  0.7145057577691293  0.9096971315209074  0.6199371178667031
  0.7192991702199862  0.6802698437981529  0.7229876690879748
  0.7767501368771706  0.7905801658448530  0.5434737958981909
  0.6016375500266641  0.7087078158827762  0.7355728775646795
  0.4654874930864260  0.6860788215394291  0.6865113691369649
  0.5380318099354744  0.9332068375699115  0.6151251741639853
  0.5710302098892370  0.5768438694335170  0.6502083980534868
  0.5317987280513198  0.7596275748204067  0.5214943725122780
  0.5201755833769448  0.7654186808014339  0.7103862974126378
  0.4574535350456989  0.8788089839370873  0.6109406524695404
  0.7794542649082802  0.8386254374739922  0.6274217217906712
  0.4963753124336142  0.6289815441121672  0.6129413527852052
  0.6473986229369352  0.6417781683888673  0.6623788317190115
  0.6887701718835837  0.7698849262084848  0.7425809238110795
  0.6871080932778815  0.7406650166579222  0.5327266372137890
  0.6198448750109866  0.8738803614120939  0.6243423153141647
 
  0.00000000E+00  0.00000000E+00  0.00000000E+00
  0.00000000E+00  0.00000000E+00  0.00000000E+00
  0.00000000E+00  0.00000000E+00  0.00000000E+00
  0.00000000E+00  0.00000000E+00  0.00000000E+00
  0.00000000E+00  0.00000000E+00  0.00000000E+00
  0.00000000E+00  0.00000000E+00  0.00000000E+00
  0.00000000E+00  0.00000000E+00  0.00000000E+00
  0.00000000E+00  0.00000000E+00  0.00000000E+00
  0.00000000E+00  0.00000000E+00  0.00000000E+00
  0.00000000E+00  0.00000000E+00  0.00000000E+00
  0.00000000E+00  0.00000000E+00  0.00000000E+00
  0.00000000E+00  0.00000000E+00  0.00000000E+00
  0.00000000E+00  0.00000000E+00  0.00000000E+00
  0.00000000E+00  0.00000000E+00  0.00000000E+00
  0.00000000E+00  0.00000000E+00  0.00000000E+00
  0.00000000E+00  0.00000000E+00  0.00000000E+00
  0.00000000E+00  0.00000000E+00  0.00000000E+00
  0.00000000E+00  0.00000000E+00  0.00000000E+00
  0.00000000E+00  0.00000000E+00  0.00000000E+00
  0.00000000E+00  0.00000000E+00  0.00000000E+00
  0.00000000E+00  0.00000000E+00  0.00000000E+00
  0.00000000E+00  0.00000000E+00  0.00000000E+00
  0.00000000E+00  0.00000000E+00  0.00000000E+00
  0.00000000E+00  0.00000000E+00  0.00000000E+00
  0.00000000E+00  0.00000000E+00  0.00000000E+00
  0.00000000E+00  0.00000000E+00  0.00000000E+00
  0.00000000E+00  0.00000000E+00  0.00000000E+00
