 O Ce                                   
   1.00000000000000     
    21.6439990997000002    0.0000000000000000    0.0000000000000000
     0.0000000000000000   21.6439990997000002    0.0000000000000000
     0.0000000000000000    0.0000000000000000   21.6439990997000002
   O    Ce
    19     9
Direct
  0.4521834436730299  0.8346562560574259  0.5213311178510714
  0.6924973308199274  0.6649908850111826  0.5675068580403733
  0.6197717231595294  0.8256207884942325  0.5221775825110526
  0.6082161840607878  0.7060267364806004  0.4898538605076181
  0.6915681568177027  0.7880460034400916  0.6199487935908068
  0.5092922163597209  0.6857770754306318  0.5581172972768277
  0.5313991240169430  0.8061780567492476  0.6112178880267188
  0.4448018483006830  0.8337123378922152  0.6955184904800809
  0.6099418642852101  0.8289746171803491  0.7076731781187869
  0.7717790255769087  0.7973675444310153  0.7138708880416890
  0.5985003879056060  0.6986510072093061  0.6612762275786176
  0.7144049316069950  0.9120865551279141  0.6218865384371253
  0.6831936818537112  0.6532119874106789  0.7445648691099258
  0.7845679383573417  0.7973879889984787  0.5395696318928778
  0.5941570734937298  0.7289217658530321  0.7799340976273248
  0.4959626288082880  0.6739460584962903  0.7330020331117298
  0.5363852870600121  0.9321739334328965  0.6124644318654365
  0.5483717614773389  0.5747643364111785  0.6539293844778410
  0.6158910981787838  0.5652269695859146  0.6575059980675279
  0.5291660896639214  0.7693323593222190  0.5129603940093806
  0.5220670830345395  0.7658304565110733  0.7124558430276329
  0.4564008801344369  0.8775853363880319  0.6103615978456322
  0.7799999344566735  0.8411017129798185  0.6281675548072768
  0.5856667621700243  0.6298263308993829  0.7414630403220819
  0.5957220106878141  0.6373401903951358  0.5786059337141415
  0.6802819059012460  0.7484177464374376  0.7216452586983468
  0.6963449867530387  0.7506237634366235  0.5220447184046444
  0.6199789646975039  0.8733611268173936  0.6163087707926266
 
  0.00000000E+00  0.00000000E+00  0.00000000E+00
  0.00000000E+00  0.00000000E+00  0.00000000E+00
  0.00000000E+00  0.00000000E+00  0.00000000E+00
  0.00000000E+00  0.00000000E+00  0.00000000E+00
  0.00000000E+00  0.00000000E+00  0.00000000E+00
  0.00000000E+00  0.00000000E+00  0.00000000E+00
  0.00000000E+00  0.00000000E+00  0.00000000E+00
  0.00000000E+00  0.00000000E+00  0.00000000E+00
  0.00000000E+00  0.00000000E+00  0.00000000E+00
  0.00000000E+00  0.00000000E+00  0.00000000E+00
  0.00000000E+00  0.00000000E+00  0.00000000E+00
  0.00000000E+00  0.00000000E+00  0.00000000E+00
  0.00000000E+00  0.00000000E+00  0.00000000E+00
  0.00000000E+00  0.00000000E+00  0.00000000E+00
  0.00000000E+00  0.00000000E+00  0.00000000E+00
  0.00000000E+00  0.00000000E+00  0.00000000E+00
  0.00000000E+00  0.00000000E+00  0.00000000E+00
  0.00000000E+00  0.00000000E+00  0.00000000E+00
  0.00000000E+00  0.00000000E+00  0.00000000E+00
  0.00000000E+00  0.00000000E+00  0.00000000E+00
  0.00000000E+00  0.00000000E+00  0.00000000E+00
  0.00000000E+00  0.00000000E+00  0.00000000E+00
  0.00000000E+00  0.00000000E+00  0.00000000E+00
  0.00000000E+00  0.00000000E+00  0.00000000E+00
  0.00000000E+00  0.00000000E+00  0.00000000E+00
  0.00000000E+00  0.00000000E+00  0.00000000E+00
  0.00000000E+00  0.00000000E+00  0.00000000E+00
  0.00000000E+00  0.00000000E+00  0.00000000E+00
