 O Ce                                   
   1.00000000000000     
    21.6439990997000002    0.0000000000000000    0.0000000000000000
     0.0000000000000000   21.6439990997000002    0.0000000000000000
     0.0000000000000000    0.0000000000000000   21.6439990997000002
   O    Ce
    19     9
Direct
  0.6650037952489880  0.5552032770752295  0.2960261856107413
  0.5168878786174397  0.5200511154285632  0.3089604379360796
  0.3416999460824309  0.5277734527851398  0.4077751332211947
  0.4041129483716294  0.5725204710741518  0.5229229387798657
  0.5771896557120797  0.6332984980983443  0.4300190881836410
  0.5700754758738061  0.6354788654957505  0.3085034949286803
  0.5656201606251919  0.5747238164822264  0.1872097877168962
  0.5563348968011494  0.6413443958589683  0.1756319236334670
  0.4436847611305065  0.6906763396554204  0.2840801257883097
  0.5124978169576091  0.5176495691297988  0.4341980934462069
  0.4365049246142996  0.6083985426540149  0.3916651250105201
  0.4045165705968836  0.5483420332799875  0.2748105012435508
  0.4375071077313650  0.6859490845234102  0.4772833746551395
  0.6720521915444632  0.7097063855001154  0.4491287824863118
  0.5782527321794694  0.6133843562075477  0.5544084414872578
  0.5246441265845357  0.7621185842766254  0.3803844762745961
  0.6671599996656717  0.7092931688387567  0.2873444820107112
  0.3355837175582954  0.6926796183598596  0.3994925101992746
  0.6660578177180453  0.5480608075728501  0.4445737483135633
  0.4271789069904984  0.5103851998411579  0.3634581871431910
  0.6444788297174794  0.6282575023309634  0.2375296346001274
  0.3465444102146152  0.6150087416198536  0.4564574734478550
  0.5944949449001288  0.5440137541382272  0.3706101423511310
  0.4323961238232756  0.7162734561585077  0.3787954295643812
  0.6561165241587242  0.6266657303594982  0.4994401549071945
  0.4813990851271620  0.6055530280294675  0.2522541040776635
  0.6095035833349559  0.7177206445110489  0.3701535106493805
  0.4950010681478920  0.6019695608274214  0.4943827123276042
 
  0.00000000E+00  0.00000000E+00  0.00000000E+00
  0.00000000E+00  0.00000000E+00  0.00000000E+00
  0.00000000E+00  0.00000000E+00  0.00000000E+00
  0.00000000E+00  0.00000000E+00  0.00000000E+00
  0.00000000E+00  0.00000000E+00  0.00000000E+00
  0.00000000E+00  0.00000000E+00  0.00000000E+00
  0.00000000E+00  0.00000000E+00  0.00000000E+00
  0.00000000E+00  0.00000000E+00  0.00000000E+00
  0.00000000E+00  0.00000000E+00  0.00000000E+00
  0.00000000E+00  0.00000000E+00  0.00000000E+00
  0.00000000E+00  0.00000000E+00  0.00000000E+00
  0.00000000E+00  0.00000000E+00  0.00000000E+00
  0.00000000E+00  0.00000000E+00  0.00000000E+00
  0.00000000E+00  0.00000000E+00  0.00000000E+00
  0.00000000E+00  0.00000000E+00  0.00000000E+00
  0.00000000E+00  0.00000000E+00  0.00000000E+00
  0.00000000E+00  0.00000000E+00  0.00000000E+00
  0.00000000E+00  0.00000000E+00  0.00000000E+00
  0.00000000E+00  0.00000000E+00  0.00000000E+00
  0.00000000E+00  0.00000000E+00  0.00000000E+00
  0.00000000E+00  0.00000000E+00  0.00000000E+00
  0.00000000E+00  0.00000000E+00  0.00000000E+00
  0.00000000E+00  0.00000000E+00  0.00000000E+00
  0.00000000E+00  0.00000000E+00  0.00000000E+00
  0.00000000E+00  0.00000000E+00  0.00000000E+00
  0.00000000E+00  0.00000000E+00  0.00000000E+00
  0.00000000E+00  0.00000000E+00  0.00000000E+00
  0.00000000E+00  0.00000000E+00  0.00000000E+00
