 O Ce                                   
   1.00000000000000     
    21.6439990997000002    0.0000000000000000    0.0000000000000000
     0.0000000000000000   21.6439990997000002    0.0000000000000000
     0.0000000000000000    0.0000000000000000   21.6439990997000002
   O    Ce
    17     9
Direct
  0.3383518840598400  0.7865983727422762  0.2214411648279434
  0.1122945990559109  0.8914566761326088  0.2510621646538514
  0.0447112009233297  0.8140505369904231  0.1757875558621808
  0.1385454785105002  0.7415137045259479  0.2036197377863261
  0.0914740077995686  0.6630643264440491  0.1215308930330960
  0.1357197607804471  0.9636304758527566  0.3521888677813432
  0.2115851807919680  0.7784582510320535  0.1133063093904813
  0.1154004907147896  0.8536527335828670  0.0779657202726260
  0.3142761518857818  0.9253970564859326  0.2853293403992477
  0.1878104190586018  0.7973958317360494  0.3039206583696946
  0.1588193300534659  0.9512628493655949  0.1388914521412462
  0.0668549289158295  0.6915617954052348  0.2902921843277244
  0.3148804864579817  0.9050650434730800  0.1129367205552049
  0.2241403657417245  0.6579839098144774  0.2321347272556689
  0.0185712576095027  0.9679451872364073  0.2237508560749849
  0.0284506522207186  0.8527486272802214  0.3371245556195036
  0.2403767181528390  0.8640241493494797  0.2033110244859423
  0.1064566155435132  0.7566527983829257  0.1087859155841562
  0.2413061238721216  0.7532041074447597  0.2199522777098576
  0.1230299940784630  0.6383652990711426  0.2212845064470790
  0.0821384313308065  0.7872076947739005  0.2792923949375061
  0.0697330701204438  0.9121985670797624  0.1587653800003999
  0.2102028404947222  0.9011559190215723  0.3039264682240482
  0.3433721555567374  0.8823296750925768  0.2065489156395940
  0.2185785498676472  0.8806067569498054  0.1031158093434762
  0.0504193064030366  0.9449696548597053  0.3162343992730794
 
  0.00000000E+00  0.00000000E+00  0.00000000E+00
  0.00000000E+00  0.00000000E+00  0.00000000E+00
  0.00000000E+00  0.00000000E+00  0.00000000E+00
  0.00000000E+00  0.00000000E+00  0.00000000E+00
  0.00000000E+00  0.00000000E+00  0.00000000E+00
  0.00000000E+00  0.00000000E+00  0.00000000E+00
  0.00000000E+00  0.00000000E+00  0.00000000E+00
  0.00000000E+00  0.00000000E+00  0.00000000E+00
  0.00000000E+00  0.00000000E+00  0.00000000E+00
  0.00000000E+00  0.00000000E+00  0.00000000E+00
  0.00000000E+00  0.00000000E+00  0.00000000E+00
  0.00000000E+00  0.00000000E+00  0.00000000E+00
  0.00000000E+00  0.00000000E+00  0.00000000E+00
  0.00000000E+00  0.00000000E+00  0.00000000E+00
  0.00000000E+00  0.00000000E+00  0.00000000E+00
  0.00000000E+00  0.00000000E+00  0.00000000E+00
  0.00000000E+00  0.00000000E+00  0.00000000E+00
  0.00000000E+00  0.00000000E+00  0.00000000E+00
  0.00000000E+00  0.00000000E+00  0.00000000E+00
  0.00000000E+00  0.00000000E+00  0.00000000E+00
  0.00000000E+00  0.00000000E+00  0.00000000E+00
  0.00000000E+00  0.00000000E+00  0.00000000E+00
  0.00000000E+00  0.00000000E+00  0.00000000E+00
  0.00000000E+00  0.00000000E+00  0.00000000E+00
  0.00000000E+00  0.00000000E+00  0.00000000E+00
  0.00000000E+00  0.00000000E+00  0.00000000E+00
