Ce9O18-b                                
   1.00000000000000     
    21.6439990997000002    0.0000000000000000    0.0000000000000000
     0.0000000000000000   21.6439990997000002    0.0000000000000000
     0.0000000000000000    0.0000000000000000   21.6439990997000002
   O    Ce
    18     9
Direct
  0.4542358176447883  0.8550226212642394  0.5190622518107525
  0.7137288297315139  0.6456039542518370  0.5732609730442414
  0.6177642218771476  0.8229045122763290  0.5223950943877405
  0.5886944399097629  0.7005353811986328  0.5197085561590427
  0.6853274982352471  0.7881626935649895  0.6288589949964716
  0.4680322551018152  0.7069647281534627  0.5349305044283259
  0.5254021424941407  0.8059753538886929  0.6102579255810172
  0.4466525916905491  0.8465780831305461  0.7013991107642455
  0.6039282119248000  0.8341480816525856  0.7073326396067197
  0.7646845906768643  0.8014024674385070  0.7199055292306814
  0.6132841794659246  0.6927158293855283  0.6497403051907449
  0.7134397099615745  0.9097273461240741  0.6198841911651258
  0.7077525347874556  0.6564734517971443  0.7264559231993918
  0.7726380267835309  0.7839445456233525  0.5465753122399565
  0.5877369818936724  0.7371429666880964  0.7790120865899908
  0.4829408816678976  0.6907017915415815  0.6792892674678089
  0.5373270203430043  0.9353685586898350  0.6134582782388980
  0.5834258854459184  0.5739468284403876  0.6194525864810153
  0.5221647846837212  0.7820574867008719  0.5065737968463244
  0.5184489988674869  0.7741478532085372  0.7175974355371160
  0.4553037711796032  0.8844120246323651  0.6128794871021286
  0.7760023002753929  0.8358476487245485  0.6300012905326426
  0.5274676059301693  0.6557581316346011  0.5992628951376339
  0.6697199590406853  0.6075199485164834  0.6521344484560440
  0.6732221630623885  0.7515593233379038  0.7300666814358345
  0.6828704287120242  0.7346390134895886  0.5419164718960521
  0.6184441686128994  0.8745193746452747  0.6150779624740509
 
  0.00000000E+00  0.00000000E+00  0.00000000E+00
  0.00000000E+00  0.00000000E+00  0.00000000E+00
  0.00000000E+00  0.00000000E+00  0.00000000E+00
  0.00000000E+00  0.00000000E+00  0.00000000E+00
  0.00000000E+00  0.00000000E+00  0.00000000E+00
  0.00000000E+00  0.00000000E+00  0.00000000E+00
  0.00000000E+00  0.00000000E+00  0.00000000E+00
  0.00000000E+00  0.00000000E+00  0.00000000E+00
  0.00000000E+00  0.00000000E+00  0.00000000E+00
  0.00000000E+00  0.00000000E+00  0.00000000E+00
  0.00000000E+00  0.00000000E+00  0.00000000E+00
  0.00000000E+00  0.00000000E+00  0.00000000E+00
  0.00000000E+00  0.00000000E+00  0.00000000E+00
  0.00000000E+00  0.00000000E+00  0.00000000E+00
  0.00000000E+00  0.00000000E+00  0.00000000E+00
  0.00000000E+00  0.00000000E+00  0.00000000E+00
  0.00000000E+00  0.00000000E+00  0.00000000E+00
  0.00000000E+00  0.00000000E+00  0.00000000E+00
  0.00000000E+00  0.00000000E+00  0.00000000E+00
  0.00000000E+00  0.00000000E+00  0.00000000E+00
  0.00000000E+00  0.00000000E+00  0.00000000E+00
  0.00000000E+00  0.00000000E+00  0.00000000E+00
  0.00000000E+00  0.00000000E+00  0.00000000E+00
  0.00000000E+00  0.00000000E+00  0.00000000E+00
  0.00000000E+00  0.00000000E+00  0.00000000E+00
  0.00000000E+00  0.00000000E+00  0.00000000E+00
  0.00000000E+00  0.00000000E+00  0.00000000E+00
