 O Ce                                   
   1.00000000000000     
    21.6439990997000002    0.0000000000000000    0.0000000000000000
     0.0000000000000000   21.6439990997000002    0.0000000000000000
     0.0000000000000000    0.0000000000000000   21.6439990997000002
   O    Ce
    18     9
Direct
  0.4517290533850285  0.8350253006685582  0.5214527451768124
  0.6918897310101657  0.6638531957854862  0.5674616412359650
  0.6194565454601867  0.8254404147760294  0.5225118946946058
  0.6073380427041762  0.7059729462811479  0.4906142695402644
  0.6913948518833415  0.7873646655230290  0.6203503676749506
  0.5077719903516538  0.6852529752957330  0.5576395215297010
  0.5306426207488656  0.8059947747938155  0.6113773940436376
  0.4442282382688447  0.8331525487478397  0.6956297276899051
  0.6094881312701799  0.8288412007553334  0.7081386126933081
  0.7715592956648767  0.7963419832404450  0.7141383656339536
  0.5977466906745115  0.7014147918321075  0.6611147292468045
  0.7144443061014090  0.9110863092117585  0.6224388214507536
  0.6823772719972467  0.6513519469287322  0.7415076839812907
  0.7844453073678180  0.7962670970528410  0.5399862372576026
  0.5939538117373540  0.7281189405829450  0.7800616794766253
  0.4958848611654741  0.6722327327531216  0.7309770842149240
  0.5359913876198380  0.9318536914836221  0.6131798829665950
  0.5835135845446049  0.5761395551880374  0.6553621614527149
  0.5284260560525673  0.7692964781194760  0.5133303783365251
  0.5219098619092423  0.7653582096577840  0.7124661338103652
  0.4558726207885996  0.8775927521277347  0.6108007391557967
  0.7800851092181589  0.8401158824683896  0.6285866719181348
  0.5852885583006154  0.6288843195304806  0.7403779949649327
  0.5944687510133440  0.6375246654629118  0.5794865050859368
  0.6795197668915315  0.7478723570704896  0.7215763898778745
  0.6958634929788263  0.7497791842195070  0.5227467541499611
  0.6197100610492087  0.8728710806592030  0.6166856129294688
 
  0.00000000E+00  0.00000000E+00  0.00000000E+00
  0.00000000E+00  0.00000000E+00  0.00000000E+00
  0.00000000E+00  0.00000000E+00  0.00000000E+00
  0.00000000E+00  0.00000000E+00  0.00000000E+00
  0.00000000E+00  0.00000000E+00  0.00000000E+00
  0.00000000E+00  0.00000000E+00  0.00000000E+00
  0.00000000E+00  0.00000000E+00  0.00000000E+00
  0.00000000E+00  0.00000000E+00  0.00000000E+00
  0.00000000E+00  0.00000000E+00  0.00000000E+00
  0.00000000E+00  0.00000000E+00  0.00000000E+00
  0.00000000E+00  0.00000000E+00  0.00000000E+00
  0.00000000E+00  0.00000000E+00  0.00000000E+00
  0.00000000E+00  0.00000000E+00  0.00000000E+00
  0.00000000E+00  0.00000000E+00  0.00000000E+00
  0.00000000E+00  0.00000000E+00  0.00000000E+00
  0.00000000E+00  0.00000000E+00  0.00000000E+00
  0.00000000E+00  0.00000000E+00  0.00000000E+00
  0.00000000E+00  0.00000000E+00  0.00000000E+00
  0.00000000E+00  0.00000000E+00  0.00000000E+00
  0.00000000E+00  0.00000000E+00  0.00000000E+00
  0.00000000E+00  0.00000000E+00  0.00000000E+00
  0.00000000E+00  0.00000000E+00  0.00000000E+00
  0.00000000E+00  0.00000000E+00  0.00000000E+00
  0.00000000E+00  0.00000000E+00  0.00000000E+00
  0.00000000E+00  0.00000000E+00  0.00000000E+00
  0.00000000E+00  0.00000000E+00  0.00000000E+00
  0.00000000E+00  0.00000000E+00  0.00000000E+00
